p cnf 2608 8705
-1 254 0
-254 255 0
-2 -254 256 0
-256 257 0
-3 -256 0
-2 255 0
-255 258 0
-3 -255 257 0
-257 259 0
-4 -257 0
-3 258 0
-258 260 0
-4 -258 259 0
-259 261 0
-5 -259 0
-4 260 0
-260 262 0
-5 -260 261 0
-261 263 0
-6 -261 0
-5 262 0
-262 264 0
-6 -262 263 0
-263 265 0
-7 -263 0
-6 264 0
-264 266 0
-7 -264 265 0
-265 267 0
-8 -265 0
-7 266 0
-266 268 0
-8 -266 267 0
-267 269 0
-9 -267 0
-8 268 0
-268 270 0
-9 -268 269 0
-269 271 0
-10 -269 0
-9 270 0
-270 272 0
-10 -270 271 0
-271 273 0
-11 -271 0
-10 272 0
-272 274 0
-11 -272 273 0
-273 275 0
-12 -273 0
-11 274 0
-274 276 0
-12 -274 275 0
-275 277 0
-13 -275 0
-12 276 0
-276 278 0
-13 -276 277 0
-277 279 0
-14 -277 0
-13 278 0
-278 280 0
-14 -278 279 0
-279 281 0
-15 -279 0
-14 280 0
-280 282 0
-15 -280 281 0
-281 283 0
-16 -281 0
-15 282 0
-282 284 0
-16 -282 283 0
-283 285 0
-17 -283 0
-16 284 0
-284 286 0
-17 -284 285 0
-285 287 0
-18 -285 0
-17 286 0
-286 288 0
-18 -286 287 0
-287 289 0
-19 -287 0
-18 288 0
-288 290 0
-19 -288 289 0
-289 291 0
-20 -289 0
-19 290 0
-290 292 0
-20 -290 291 0
-291 293 0
-21 -291 0
-20 292 0
-292 294 0
-21 -292 293 0
-293 295 0
-22 -293 0
-21 294 0
-294 296 0
-22 -294 295 0
-295 297 0
-23 -295 0
-22 296 0
-296 298 0
-23 -296 297 0
-297 299 0
-24 -297 0
-23 298 0
-298 300 0
-24 -298 299 0
-299 301 0
-25 -299 0
-24 300 0
-300 302 0
-25 -300 301 0
-301 303 0
-26 -301 0
-25 302 0
-302 304 0
-26 -302 303 0
-303 305 0
-27 -303 0
-26 304 0
-304 306 0
-27 -304 305 0
-305 307 0
-28 -305 0
-27 306 0
-306 308 0
-28 -306 307 0
-307 309 0
-29 -307 0
-28 308 0
-308 310 0
-29 -308 309 0
-309 311 0
-30 -309 0
-29 310 0
-310 312 0
-30 -310 311 0
-311 313 0
-31 -311 0
-30 312 0
-312 314 0
-31 -312 313 0
-313 315 0
-32 -313 0
-31 314 0
-314 316 0
-32 -314 315 0
-315 317 0
-33 -315 0
-32 316 0
-316 318 0
-33 -316 317 0
-317 319 0
-34 -317 0
-33 318 0
-318 320 0
-34 -318 319 0
-319 321 0
-35 -319 0
-34 320 0
-320 322 0
-35 -320 321 0
-321 323 0
-36 -321 0
-35 322 0
-322 324 0
-36 -322 323 0
-323 325 0
-37 -323 0
-36 324 0
-324 326 0
-37 -324 325 0
-325 327 0
-38 -325 0
-37 326 0
-326 328 0
-38 -326 327 0
-327 329 0
-39 -327 0
-38 328 0
-328 330 0
-39 -328 329 0
-329 331 0
-40 -329 0
-39 330 0
-330 332 0
-40 -330 331 0
-331 333 0
-41 -331 0
-40 332 0
-332 334 0
-41 -332 333 0
-333 335 0
-42 -333 0
-41 334 0
-334 336 0
-42 -334 335 0
-335 337 0
-43 -335 0
-42 336 0
-336 338 0
-43 -336 337 0
-337 339 0
-44 -337 0
-43 338 0
-338 340 0
-44 -338 339 0
-339 341 0
-45 -339 0
-44 340 0
-340 342 0
-45 -340 341 0
-341 343 0
-46 -341 0
-45 342 0
-342 344 0
-46 -342 343 0
-343 345 0
-47 -343 0
-46 344 0
-344 346 0
-47 -344 345 0
-345 347 0
-48 -345 0
-47 346 0
-346 348 0
-48 -346 347 0
-347 349 0
-49 -347 0
-48 348 0
-348 350 0
-49 -348 349 0
-349 351 0
-50 -349 0
-49 350 0
-350 352 0
-50 -350 351 0
-351 353 0
-51 -351 0
-50 352 0
-352 354 0
-51 -352 353 0
-353 355 0
-52 -353 0
-51 354 0
-354 356 0
-52 -354 355 0
-355 357 0
-53 -355 0
-52 356 0
-356 358 0
-53 -356 357 0
-357 359 0
-54 -357 0
-53 358 0
-358 360 0
-54 -358 359 0
-359 361 0
-55 -359 0
-54 360 0
-360 362 0
-55 -360 361 0
-361 363 0
-56 -361 0
-55 362 0
-362 364 0
-56 -362 363 0
-363 365 0
-57 -363 0
-56 364 0
-364 366 0
-57 -364 365 0
-365 367 0
-58 -365 0
-57 366 0
-366 368 0
-58 -366 367 0
-367 369 0
-59 -367 0
-58 368 0
-368 370 0
-59 -368 369 0
-369 371 0
-60 -369 0
-59 370 0
-370 372 0
-60 -370 371 0
-371 373 0
-61 -371 0
-60 372 0
-372 374 0
-61 -372 373 0
-373 375 0
-62 -373 0
-61 374 0
-374 376 0
-62 -374 375 0
-375 377 0
-63 -375 0
-62 376 0
-376 378 0
-63 -376 377 0
-377 379 0
-64 -377 0
-63 378 0
-378 380 0
-64 -378 379 0
-379 381 0
-65 -379 0
-64 380 0
-380 382 0
-65 -380 381 0
-381 383 0
-66 -381 0
-65 382 0
-382 384 0
-66 -382 383 0
-383 385 0
-67 -383 0
-66 384 0
-384 386 0
-67 -384 385 0
-385 387 0
-68 -385 0
-67 386 0
-386 388 0
-68 -386 387 0
-387 389 0
-69 -387 0
-68 388 0
-388 390 0
-69 -388 389 0
-389 391 0
-70 -389 0
-69 390 0
-390 392 0
-70 -390 391 0
-391 393 0
-71 -391 0
-70 392 0
-392 394 0
-71 -392 393 0
-393 395 0
-72 -393 0
-71 394 0
-394 396 0
-72 -394 395 0
-395 397 0
-73 -395 0
-72 396 0
-396 398 0
-73 -396 397 0
-397 399 0
-74 -397 0
-73 398 0
-398 400 0
-74 -398 399 0
-399 401 0
-75 -399 0
-74 400 0
-400 402 0
-75 -400 401 0
-401 403 0
-76 -401 0
-75 402 0
-402 404 0
-76 -402 403 0
-403 405 0
-77 -403 0
-76 404 0
-404 406 0
-77 -404 405 0
-405 407 0
-78 -405 0
-77 406 0
-406 408 0
-78 -406 407 0
-407 409 0
-79 -407 0
-78 408 0
-408 410 0
-79 -408 409 0
-409 411 0
-80 -409 0
-79 410 0
-410 412 0
-80 -410 411 0
-411 413 0
-81 -411 0
-80 412 0
-412 414 0
-81 -412 413 0
-413 415 0
-82 -413 0
-81 414 0
-414 416 0
-82 -414 415 0
-415 417 0
-83 -415 0
-82 416 0
-416 418 0
-83 -416 417 0
-417 419 0
-84 -417 0
-83 418 0
-418 420 0
-84 -418 419 0
-419 421 0
-85 -419 0
-84 420 0
-420 422 0
-85 -420 421 0
-421 423 0
-86 -421 0
-85 422 0
-422 424 0
-86 -422 423 0
-423 425 0
-87 -423 0
-86 424 0
-424 426 0
-87 -424 425 0
-425 427 0
-88 -425 0
-87 426 0
-426 428 0
-88 -426 427 0
-427 429 0
-89 -427 0
-88 428 0
-428 430 0
-89 -428 429 0
-429 431 0
-90 -429 0
-89 430 0
-430 432 0
-90 -430 431 0
-431 433 0
-91 -431 0
-90 432 0
-432 434 0
-91 -432 433 0
-433 435 0
-92 -433 0
-91 434 0
-434 436 0
-92 -434 435 0
-435 437 0
-93 -435 0
-92 436 0
-436 438 0
-93 -436 437 0
-437 439 0
-94 -437 0
-93 438 0
-438 440 0
-94 -438 439 0
-439 441 0
-95 -439 0
-94 440 0
-440 442 0
-95 -440 441 0
-441 443 0
-96 -441 0
-95 442 0
-442 444 0
-96 -442 443 0
-443 445 0
-97 -443 0
-96 444 0
-444 446 0
-97 -444 445 0
-445 447 0
-98 -445 0
-97 446 0
-446 448 0
-98 -446 447 0
-447 449 0
-99 -447 0
-98 448 0
-448 450 0
-99 -448 449 0
-449 451 0
-100 -449 0
-99 450 0
-450 452 0
-100 -450 451 0
-451 453 0
-101 -451 0
-100 452 0
-452 454 0
-101 -452 453 0
-453 455 0
-102 -453 0
-101 454 0
-454 456 0
-102 -454 455 0
-455 457 0
-103 -455 0
-102 456 0
-456 458 0
-103 -456 457 0
-457 459 0
-104 -457 0
-103 458 0
-458 460 0
-104 -458 459 0
-459 461 0
-105 -459 0
-104 460 0
-460 462 0
-105 -460 461 0
-461 463 0
-106 -461 0
-105 462 0
-462 464 0
-106 -462 463 0
-463 465 0
-107 -463 0
-106 464 0
-464 466 0
-107 -464 465 0
-465 467 0
-108 -465 0
-107 466 0
-466 468 0
-108 -466 467 0
-467 469 0
-109 -467 0
-108 468 0
-468 470 0
-109 -468 469 0
-469 471 0
-110 -469 0
-109 470 0
-470 472 0
-110 -470 471 0
-471 473 0
-111 -471 0
-110 472 0
-472 474 0
-111 -472 473 0
-473 475 0
-112 -473 0
-111 474 0
-474 476 0
-112 -474 475 0
-475 477 0
-113 -475 0
-112 476 0
-476 478 0
-113 -476 477 0
-477 479 0
-114 -477 0
-113 478 0
-478 480 0
-114 -478 479 0
-479 481 0
-115 -479 0
-114 480 0
-480 482 0
-115 -480 481 0
-481 483 0
-116 -481 0
-115 482 0
-482 484 0
-116 -482 483 0
-483 485 0
-117 -483 0
-116 484 0
-484 486 0
-117 -484 485 0
-485 487 0
-118 -485 0
-117 486 0
-486 488 0
-118 -486 487 0
-487 489 0
-119 -487 0
-118 488 0
-488 490 0
-119 -488 489 0
-489 491 0
-120 -489 0
-119 490 0
-490 492 0
-120 -490 491 0
-491 493 0
-121 -491 0
-120 492 0
-492 494 0
-121 -492 493 0
-493 495 0
-122 -493 0
-121 494 0
-494 496 0
-122 -494 495 0
-495 497 0
-123 -495 0
-122 496 0
-496 498 0
-123 -496 497 0
-497 499 0
-124 -497 0
-123 498 0
-498 500 0
-124 -498 499 0
-499 501 0
-125 -499 0
-124 500 0
-500 502 0
-125 -500 501 0
-501 503 0
-126 -501 0
-125 502 0
-502 504 0
-126 -502 503 0
-503 505 0
-127 -503 0
-126 504 0
-504 506 0
-127 -504 505 0
-505 507 0
-128 -505 0
-127 506 0
-506 508 0
-128 -506 507 0
-507 509 0
-129 -507 0
-128 508 0
-508 510 0
-129 -508 509 0
-509 511 0
-130 -509 0
-129 510 0
-510 512 0
-130 -510 511 0
-511 513 0
-131 -511 0
-130 512 0
-512 514 0
-131 -512 513 0
-513 515 0
-132 -513 0
-131 514 0
-514 516 0
-132 -514 515 0
-515 517 0
-133 -515 0
-132 516 0
-516 518 0
-133 -516 517 0
-517 519 0
-134 -517 0
-133 518 0
-518 520 0
-134 -518 519 0
-519 521 0
-135 -519 0
-134 520 0
-520 522 0
-135 -520 521 0
-521 523 0
-136 -521 0
-135 522 0
-522 524 0
-136 -522 523 0
-523 525 0
-137 -523 0
-136 524 0
-524 526 0
-137 -524 525 0
-525 527 0
-138 -525 0
-137 526 0
-526 528 0
-138 -526 527 0
-527 529 0
-139 -527 0
-138 528 0
-528 530 0
-139 -528 529 0
-529 531 0
-140 -529 0
-139 530 0
-530 532 0
-140 -530 531 0
-531 533 0
-141 -531 0
-140 532 0
-532 534 0
-141 -532 533 0
-533 535 0
-142 -533 0
-141 534 0
-534 536 0
-142 -534 535 0
-535 537 0
-143 -535 0
-142 536 0
-536 538 0
-143 -536 537 0
-537 539 0
-144 -537 0
-143 538 0
-538 540 0
-144 -538 539 0
-539 541 0
-145 -539 0
-144 540 0
-540 542 0
-145 -540 541 0
-541 543 0
-146 -541 0
-145 542 0
-542 544 0
-146 -542 543 0
-543 545 0
-147 -543 0
-146 544 0
-544 546 0
-147 -544 545 0
-545 547 0
-148 -545 0
-147 546 0
-546 548 0
-148 -546 547 0
-547 549 0
-149 -547 0
-148 548 0
-548 550 0
-149 -548 549 0
-549 551 0
-150 -549 0
-149 550 0
-550 552 0
-150 -550 551 0
-551 553 0
-151 -551 0
-150 552 0
-552 554 0
-151 -552 553 0
-553 555 0
-152 -553 0
-151 554 0
-554 556 0
-152 -554 555 0
-555 557 0
-153 -555 0
-152 556 0
-556 558 0
-153 -556 557 0
-557 559 0
-154 -557 0
-153 558 0
-558 560 0
-154 -558 559 0
-559 561 0
-155 -559 0
-154 560 0
-560 562 0
-155 -560 561 0
-561 563 0
-156 -561 0
-155 562 0
-562 564 0
-156 -562 563 0
-563 565 0
-157 -563 0
-156 564 0
-564 566 0
-157 -564 565 0
-565 567 0
-158 -565 0
-157 566 0
-566 568 0
-158 -566 567 0
-567 569 0
-159 -567 0
-158 568 0
-568 570 0
-159 -568 569 0
-569 571 0
-160 -569 0
-159 570 0
-570 572 0
-160 -570 571 0
-571 573 0
-161 -571 0
-160 572 0
-572 574 0
-161 -572 573 0
-573 575 0
-162 -573 0
-161 574 0
-574 576 0
-162 -574 575 0
-575 577 0
-163 -575 0
-162 576 0
-576 578 0
-163 -576 577 0
-577 579 0
-164 -577 0
-163 578 0
-578 580 0
-164 -578 579 0
-579 581 0
-165 -579 0
-164 580 0
-580 582 0
-165 -580 581 0
-581 583 0
-166 -581 0
-165 582 0
-582 584 0
-166 -582 583 0
-583 585 0
-167 -583 0
-166 584 0
-584 586 0
-167 -584 585 0
-585 587 0
-168 -585 0
-167 586 0
-586 588 0
-168 -586 587 0
-587 589 0
-169 -587 0
-168 588 0
-588 590 0
-169 -588 589 0
-589 591 0
-170 -589 0
-169 590 0
-590 592 0
-170 -590 591 0
-591 593 0
-171 -591 0
-170 592 0
-592 594 0
-171 -592 593 0
-593 595 0
-172 -593 0
-171 594 0
-594 596 0
-172 -594 595 0
-595 597 0
-173 -595 0
-172 596 0
-596 598 0
-173 -596 597 0
-597 599 0
-174 -597 0
-173 598 0
-598 600 0
-174 -598 599 0
-599 601 0
-175 -599 0
-174 600 0
-600 602 0
-175 -600 601 0
-601 603 0
-176 -601 0
-175 602 0
-602 604 0
-176 -602 603 0
-603 605 0
-177 -603 0
-176 604 0
-604 606 0
-177 -604 605 0
-605 607 0
-178 -605 0
-177 606 0
-606 608 0
-178 -606 607 0
-607 609 0
-179 -607 0
-178 608 0
-608 610 0
-179 -608 609 0
-609 611 0
-180 -609 0
-179 610 0
-610 612 0
-180 -610 611 0
-611 613 0
-181 -611 0
-180 612 0
-612 614 0
-181 -612 613 0
-613 615 0
-182 -613 0
-181 614 0
-614 616 0
-182 -614 615 0
-615 617 0
-183 -615 0
-182 616 0
-616 618 0
-183 -616 617 0
-617 619 0
-184 -617 0
-183 618 0
-618 620 0
-184 -618 619 0
-619 621 0
-185 -619 0
-184 620 0
-620 622 0
-185 -620 621 0
-621 623 0
-186 -621 0
-185 622 0
-622 624 0
-186 -622 623 0
-623 625 0
-187 -623 0
-186 624 0
-624 626 0
-187 -624 625 0
-625 627 0
-188 -625 0
-187 626 0
-626 628 0
-188 -626 627 0
-627 629 0
-189 -627 0
-188 628 0
-628 630 0
-189 -628 629 0
-629 631 0
-190 -629 0
-189 630 0
-630 632 0
-190 -630 631 0
-631 633 0
-191 -631 0
-190 632 0
-632 634 0
-191 -632 633 0
-633 635 0
-192 -633 0
-191 634 0
-634 636 0
-192 -634 635 0
-635 637 0
-193 -635 0
-192 636 0
-636 638 0
-193 -636 637 0
-637 639 0
-194 -637 0
-193 638 0
-638 640 0
-194 -638 639 0
-639 641 0
-195 -639 0
-194 640 0
-640 642 0
-195 -640 641 0
-641 643 0
-196 -641 0
-195 642 0
-642 644 0
-196 -642 643 0
-643 645 0
-197 -643 0
-196 644 0
-644 646 0
-197 -644 645 0
-645 647 0
-198 -645 0
-197 646 0
-646 648 0
-198 -646 647 0
-647 649 0
-199 -647 0
-198 648 0
-648 650 0
-199 -648 649 0
-649 651 0
-200 -649 0
-199 650 0
-650 652 0
-200 -650 651 0
-651 653 0
-201 -651 0
-200 652 0
-652 654 0
-201 -652 653 0
-653 655 0
-202 -653 0
-201 654 0
-654 656 0
-202 -654 655 0
-655 657 0
-203 -655 0
-202 656 0
-656 658 0
-203 -656 657 0
-657 659 0
-204 -657 0
-203 658 0
-658 660 0
-204 -658 659 0
-659 661 0
-205 -659 0
-204 660 0
-660 662 0
-205 -660 661 0
-661 663 0
-206 -661 0
-205 662 0
-662 664 0
-206 -662 663 0
-663 665 0
-207 -663 0
-206 664 0
-664 666 0
-207 -664 665 0
-665 667 0
-208 -665 0
-207 666 0
-666 668 0
-208 -666 667 0
-667 669 0
-209 -667 0
-208 668 0
-668 670 0
-209 -668 669 0
-669 671 0
-210 -669 0
-209 670 0
-670 672 0
-210 -670 671 0
-671 673 0
-211 -671 0
-210 672 0
-672 674 0
-211 -672 673 0
-673 675 0
-212 -673 0
-211 674 0
-674 676 0
-212 -674 675 0
-675 677 0
-213 -675 0
-212 676 0
-676 678 0
-213 -676 677 0
-677 679 0
-214 -677 0
-213 678 0
-678 680 0
-214 -678 679 0
-679 681 0
-215 -679 0
-214 680 0
-680 682 0
-215 -680 681 0
-681 683 0
-216 -681 0
-215 682 0
-682 684 0
-216 -682 683 0
-683 685 0
-217 -683 0
-216 684 0
-684 686 0
-217 -684 685 0
-685 687 0
-218 -685 0
-217 686 0
-686 688 0
-218 -686 687 0
-687 689 0
-219 -687 0
-218 688 0
-688 690 0
-219 -688 689 0
-689 691 0
-220 -689 0
-219 690 0
-690 692 0
-220 -690 691 0
-691 693 0
-221 -691 0
-220 692 0
-692 694 0
-221 -692 693 0
-693 695 0
-222 -693 0
-221 694 0
-694 696 0
-222 -694 695 0
-695 697 0
-223 -695 0
-222 696 0
-696 698 0
-223 -696 697 0
-697 699 0
-224 -697 0
-223 698 0
-698 700 0
-224 -698 699 0
-699 701 0
-225 -699 0
-224 700 0
-700 702 0
-225 -700 701 0
-701 703 0
-226 -701 0
-225 702 0
-702 704 0
-226 -702 703 0
-703 705 0
-227 -703 0
-226 704 0
-704 706 0
-227 -704 705 0
-705 707 0
-228 -705 0
-227 706 0
-706 708 0
-228 -706 707 0
-707 709 0
-229 -707 0
-228 708 0
-708 710 0
-229 -708 709 0
-709 711 0
-230 -709 0
-229 710 0
-710 712 0
-230 -710 711 0
-711 713 0
-231 -711 0
-230 712 0
-712 714 0
-231 -712 713 0
-713 715 0
-232 -713 0
-231 714 0
-714 716 0
-232 -714 715 0
-715 717 0
-233 -715 0
-232 716 0
-716 718 0
-233 -716 717 0
-717 719 0
-234 -717 0
-233 718 0
-718 720 0
-234 -718 719 0
-719 721 0
-235 -719 0
-234 720 0
-720 722 0
-235 -720 721 0
-721 723 0
-236 -721 0
-235 722 0
-722 724 0
-236 -722 723 0
-723 725 0
-237 -723 0
-236 724 0
-724 726 0
-237 -724 725 0
-725 727 0
-238 -725 0
-237 726 0
-726 728 0
-238 -726 727 0
-727 729 0
-239 -727 0
-238 728 0
-728 730 0
-239 -728 729 0
-729 731 0
-240 -729 0
-239 730 0
-730 732 0
-240 -730 731 0
-731 733 0
-241 -731 0
-240 732 0
-732 734 0
-241 -732 733 0
-733 735 0
-242 -733 0
-241 734 0
-734 736 0
-242 -734 735 0
-735 737 0
-243 -735 0
-242 736 0
-736 738 0
-243 -736 737 0
-737 739 0
-244 -737 0
-243 738 0
-738 740 0
-244 -738 739 0
-739 741 0
-245 -739 0
-244 740 0
-740 742 0
-245 -740 741 0
-741 743 0
-246 -741 0
-245 742 0
-742 744 0
-246 -742 743 0
-743 745 0
-247 -743 0
-246 744 0
-744 746 0
-247 -744 745 0
-745 747 0
-248 -745 0
-247 746 0
-746 748 0
-248 -746 747 0
-747 749 0
-249 -747 0
-248 748 0
-748 750 0
-249 -748 749 0
-749 751 0
-250 -749 0
-249 750 0
-750 752 0
-250 -750 751 0
-751 753 0
-251 -751 0
-250 752 0
-251 -752 753 0
-252 -753 0
-754 4 25 0
-754 -4 -25 0
754 4 -25 0
754 -4 25 0
-755 754 31 0
-755 -754 -31 0
755 754 -31 0
755 -754 31 0
-756 755 41 0
-756 -755 -41 0
756 755 -41 0
756 -755 41 0
-757 756 42 0
-757 -756 -42 0
757 756 -42 0
757 -756 42 0
-758 757 55 0
-758 -757 -55 0
758 757 -55 0
758 -757 55 0
-759 758 79 0
-759 -758 -79 0
759 758 -79 0
759 -758 79 0
-760 759 80 0
-760 -759 -80 0
760 759 -80 0
760 -759 80 0
-761 760 83 0
-761 -760 -83 0
761 760 -83 0
761 -760 83 0
-762 761 84 0
-762 -761 -84 0
762 761 -84 0
762 -761 84 0
-763 762 85 0
-763 -762 -85 0
763 762 -85 0
763 -762 85 0
-764 763 105 0
-764 -763 -105 0
764 763 -105 0
764 -763 105 0
-765 764 106 0
-765 -764 -106 0
765 764 -106 0
765 -764 106 0
-766 765 107 0
-766 -765 -107 0
766 765 -107 0
766 -765 107 0
-767 766 135 0
-767 -766 -135 0
767 766 -135 0
767 -766 135 0
-768 767 136 0
-768 -767 -136 0
768 767 -136 0
768 -767 136 0
-769 768 178 0
-769 -768 -178 0
769 768 -178 0
769 -768 178 0
-770 769 179 0
-770 -769 -179 0
770 769 -179 0
770 -769 179 0
-771 770 180 0
-771 -770 -180 0
771 770 -180 0
771 -770 180 0
-772 771 214 0
-772 -771 -214 0
772 771 -214 0
772 -771 214 0
-773 772 215 0
-773 -772 -215 0
773 772 -215 0
773 -772 215 0
-774 773 219 0
-774 -773 -219 0
774 773 -219 0
774 -773 219 0
-775 774 220 0
-775 -774 -220 0
775 774 -220 0
775 -774 220 0
-776 775 244 0
-776 -775 -244 0
776 775 -244 0
776 -775 244 0
-777 776 245 0
-777 -776 -245 0
777 776 -245 0
777 -776 245 0
-778 777 249 0
-778 -777 -249 0
778 777 -249 0
778 -777 249 0
-779 778 250 0
-779 -778 -250 0
779 778 -250 0
779 -778 250 0
-779 0
-780 5 26 0
-780 -5 -26 0
780 5 -26 0
780 -5 26 0
-781 780 32 0
-781 -780 -32 0
781 780 -32 0
781 -780 32 0
-782 781 37 0
-782 -781 -37 0
782 781 -37 0
782 -781 37 0
-783 782 42 0
-783 -782 -42 0
783 782 -42 0
783 -782 42 0
-784 783 56 0
-784 -783 -56 0
784 783 -56 0
784 -783 56 0
-785 784 84 0
-785 -784 -84 0
785 784 -84 0
785 -784 84 0
-786 785 85 0
-786 -785 -85 0
786 785 -85 0
786 -785 85 0
-787 786 88 0
-787 -786 -88 0
787 786 -88 0
787 -786 88 0
-788 787 89 0
-788 -787 -89 0
788 787 -89 0
788 -787 89 0
-789 788 90 0
-789 -788 -90 0
789 788 -90 0
789 -788 90 0
-790 789 110 0
-790 -789 -110 0
790 789 -110 0
790 -789 110 0
-791 790 111 0
-791 -790 -111 0
791 790 -111 0
791 -790 111 0
-792 791 112 0
-792 -791 -112 0
792 791 -112 0
792 -791 112 0
-793 792 140 0
-793 -792 -140 0
793 792 -140 0
793 -792 140 0
-794 793 141 0
-794 -793 -141 0
794 793 -141 0
794 -793 141 0
-795 794 183 0
-795 -794 -183 0
795 794 -183 0
795 -794 183 0
-796 795 184 0
-796 -795 -184 0
796 795 -184 0
796 -795 184 0
-797 796 185 0
-797 -796 -185 0
797 796 -185 0
797 -796 185 0
-798 797 194 0
-798 -797 -194 0
798 797 -194 0
798 -797 194 0
-799 798 195 0
-799 -798 -195 0
799 798 -195 0
799 -798 195 0
-800 799 220 0
-800 -799 -220 0
800 799 -220 0
800 -799 220 0
-801 800 224 0
-801 -800 -224 0
801 800 -224 0
801 -800 224 0
-802 801 225 0
-802 -801 -225 0
802 801 -225 0
802 -801 225 0
-803 802 250 0
-803 -802 -250 0
803 802 -250 0
803 -802 250 0
-803 0
-804 6 27 0
-804 -6 -27 0
804 6 -27 0
804 -6 27 0
-805 804 33 0
-805 -804 -33 0
805 804 -33 0
805 -804 33 0
-806 805 37 0
-806 -805 -37 0
806 805 -37 0
806 -805 37 0
-807 806 38 0
-807 -806 -38 0
807 806 -38 0
807 -806 38 0
-808 807 57 0
-808 -807 -57 0
808 807 -57 0
808 -807 57 0
-809 808 89 0
-809 -808 -89 0
809 808 -89 0
809 -808 89 0
-810 809 90 0
-810 -809 -90 0
810 809 -90 0
810 -809 90 0
-811 810 94 0
-811 -810 -94 0
811 810 -94 0
811 -810 94 0
-812 811 95 0
-812 -811 -95 0
812 811 -95 0
812 -811 95 0
-813 812 115 0
-813 -812 -115 0
813 812 -115 0
813 -812 115 0
-814 813 116 0
-814 -813 -116 0
814 813 -116 0
814 -813 116 0
-815 814 117 0
-815 -814 -117 0
815 814 -117 0
815 -814 117 0
-816 815 145 0
-816 -815 -145 0
816 815 -145 0
816 -815 145 0
-817 816 146 0
-817 -816 -146 0
817 816 -146 0
817 -816 146 0
-818 817 188 0
-818 -817 -188 0
818 817 -188 0
818 -817 188 0
-819 818 189 0
-819 -818 -189 0
819 818 -189 0
819 -818 189 0
-820 819 190 0
-820 -819 -190 0
820 819 -190 0
820 -819 190 0
-821 820 195 0
-821 -820 -195 0
821 820 -195 0
821 -820 195 0
-822 821 199 0
-822 -821 -199 0
822 821 -199 0
822 -821 199 0
-823 822 200 0
-823 -822 -200 0
823 822 -200 0
823 -822 200 0
-824 823 225 0
-824 -823 -225 0
824 823 -225 0
824 -823 225 0
-825 824 229 0
-825 -824 -229 0
825 824 -229 0
825 -824 229 0
-826 825 230 0
-826 -825 -230 0
826 825 -230 0
826 -825 230 0
-826 0
-827 1 28 0
-827 -1 -28 0
827 1 -28 0
827 -1 28 0
-828 827 34 0
-828 -827 -34 0
828 827 -34 0
828 -827 34 0
-829 828 38 0
-829 -828 -38 0
829 828 -38 0
829 -828 38 0
-830 829 39 0
-830 -829 -39 0
830 829 -39 0
830 -829 39 0
-831 830 58 0
-831 -830 -58 0
831 830 -58 0
831 -830 58 0
-832 831 93 0
-832 -831 -93 0
832 831 -93 0
832 -831 93 0
-833 832 94 0
-833 -832 -94 0
833 832 -94 0
833 -832 94 0
-834 833 95 0
-834 -833 -95 0
834 833 -95 0
834 -833 95 0
-835 834 98 0
-835 -834 -98 0
835 834 -98 0
835 -834 98 0
-836 835 99 0
-836 -835 -99 0
836 835 -99 0
836 -835 99 0
-837 836 100 0
-837 -836 -100 0
837 836 -100 0
837 -836 100 0
-838 837 120 0
-838 -837 -120 0
838 837 -120 0
838 -837 120 0
-839 838 121 0
-839 -838 -121 0
839 838 -121 0
839 -838 121 0
-840 839 122 0
-840 -839 -122 0
840 839 -122 0
840 -839 122 0
-841 840 150 0
-841 -840 -150 0
841 840 -150 0
841 -840 150 0
-842 841 151 0
-842 -841 -151 0
842 841 -151 0
842 -841 151 0
-843 842 163 0
-843 -842 -163 0
843 842 -163 0
843 -842 163 0
-844 843 164 0
-844 -843 -164 0
844 843 -164 0
844 -843 164 0
-845 844 165 0
-845 -844 -165 0
845 844 -165 0
845 -844 165 0
-846 845 200 0
-846 -845 -200 0
846 845 -200 0
846 -845 200 0
-847 846 204 0
-847 -846 -204 0
847 846 -204 0
847 -846 204 0
-848 847 205 0
-848 -847 -205 0
848 847 -205 0
848 -847 205 0
-849 848 230 0
-849 -848 -230 0
849 848 -230 0
849 -848 230 0
-850 849 234 0
-850 -849 -234 0
850 849 -234 0
850 -849 234 0
-851 850 235 0
-851 -850 -235 0
851 850 -235 0
851 -850 235 0
-851 0
-852 2 29 0
-852 -2 -29 0
852 2 -29 0
852 -2 29 0
-853 852 35 0
-853 -852 -35 0
853 852 -35 0
853 -852 35 0
-854 853 39 0
-854 -853 -39 0
854 853 -39 0
854 -853 39 0
-855 854 40 0
-855 -854 -40 0
855 854 -40 0
855 -854 40 0
-856 855 59 0
-856 -855 -59 0
856 855 -59 0
856 -855 59 0
-857 856 73 0
-857 -856 -73 0
857 856 -73 0
857 -856 73 0
-858 857 74 0
-858 -857 -74 0
858 857 -74 0
858 -857 74 0
-859 858 75 0
-859 -858 -75 0
859 858 -75 0
859 -858 75 0
-860 859 99 0
-860 -859 -99 0
860 859 -99 0
860 -859 99 0
-861 860 100 0
-861 -860 -100 0
861 860 -100 0
861 -860 100 0
-862 861 125 0
-862 -861 -125 0
862 861 -125 0
862 -861 125 0
-863 862 126 0
-863 -862 -126 0
863 862 -126 0
863 -862 126 0
-864 863 127 0
-864 -863 -127 0
864 863 -127 0
864 -863 127 0
-865 864 155 0
-865 -864 -155 0
865 864 -155 0
865 -864 155 0
-866 865 156 0
-866 -865 -156 0
866 865 -156 0
866 -865 156 0
-867 866 168 0
-867 -866 -168 0
867 866 -168 0
867 -866 168 0
-868 867 169 0
-868 -867 -169 0
868 867 -169 0
868 -867 169 0
-869 868 170 0
-869 -868 -170 0
869 868 -170 0
869 -868 170 0
-870 869 205 0
-870 -869 -205 0
870 869 -205 0
870 -869 205 0
-871 870 209 0
-871 -870 -209 0
871 870 -209 0
871 -870 209 0
-872 871 210 0
-872 -871 -210 0
872 871 -210 0
872 -871 210 0
-873 872 235 0
-873 -872 -235 0
873 872 -235 0
873 -872 235 0
-874 873 239 0
-874 -873 -239 0
874 873 -239 0
874 -873 239 0
-875 874 240 0
-875 -874 -240 0
875 874 -240 0
875 -874 240 0
-875 0
-876 3 30 0
-876 -3 -30 0
876 3 -30 0
876 -3 30 0
-877 876 36 0
-877 -876 -36 0
877 876 -36 0
877 -876 36 0
-878 877 40 0
-878 -877 -40 0
878 877 -40 0
878 -877 40 0
-879 878 41 0
-879 -878 -41 0
879 878 -41 0
879 -878 41 0
-880 879 60 0
-880 -879 -60 0
880 879 -60 0
880 -879 60 0
-881 880 74 0
-881 -880 -74 0
881 880 -74 0
881 -880 74 0
-882 881 75 0
-882 -881 -75 0
882 881 -75 0
882 -881 75 0
-883 882 78 0
-883 -882 -78 0
883 882 -78 0
883 -882 78 0
-884 883 79 0
-884 -883 -79 0
884 883 -79 0
884 -883 79 0
-885 884 80 0
-885 -884 -80 0
885 884 -80 0
885 -884 80 0
-886 885 130 0
-886 -885 -130 0
886 885 -130 0
886 -885 130 0
-887 886 131 0
-887 -886 -131 0
887 886 -131 0
887 -886 131 0
-888 887 132 0
-888 -887 -132 0
888 887 -132 0
888 -887 132 0
-889 888 160 0
-889 -888 -160 0
889 888 -160 0
889 -888 160 0
-890 889 161 0
-890 -889 -161 0
890 889 -161 0
890 -889 161 0
-891 890 173 0
-891 -890 -173 0
891 890 -173 0
891 -890 173 0
-892 891 174 0
-892 -891 -174 0
892 891 -174 0
892 -891 174 0
-893 892 175 0
-893 -892 -175 0
893 892 -175 0
893 -892 175 0
-894 893 210 0
-894 -893 -210 0
894 893 -210 0
894 -893 210 0
-895 894 215 0
-895 -894 -215 0
895 894 -215 0
895 -894 215 0
-896 895 240 0
-896 -895 -240 0
896 895 -240 0
896 -895 240 0
-897 896 245 0
-897 -896 -245 0
897 896 -245 0
897 -896 245 0
-897 0
-898 1 10 0
-898 -1 -10 0
898 1 -10 0
898 -1 10 0
-899 898 31 0
-899 -898 -31 0
899 898 -31 0
899 -898 31 0
-900 899 47 0
-900 -899 -47 0
900 899 -47 0
900 -899 47 0
-901 900 48 0
-901 -900 -48 0
901 900 -48 0
901 -900 48 0
-902 901 61 0
-902 -901 -61 0
902 901 -61 0
902 -901 61 0
-903 902 93 0
-903 -902 -93 0
903 902 -93 0
903 -902 93 0
-904 903 94 0
-904 -903 -94 0
904 903 -94 0
904 -903 94 0
-905 904 95 0
-905 -904 -95 0
905 904 -95 0
905 -904 95 0
-906 905 96 0
-906 -905 -96 0
906 905 -96 0
906 -905 96 0
-907 906 98 0
-907 -906 -98 0
907 906 -98 0
907 -906 98 0
-908 907 99 0
-908 -907 -99 0
908 907 -99 0
908 -907 99 0
-909 908 100 0
-909 -908 -100 0
909 908 -100 0
909 -908 100 0
-910 909 101 0
-910 -909 -101 0
910 909 -101 0
910 -909 101 0
-911 910 109 0
-911 -910 -109 0
911 910 -109 0
911 -910 109 0
-912 911 110 0
-912 -911 -110 0
912 911 -110 0
912 -911 110 0
-913 912 113 0
-913 -912 -113 0
913 912 -113 0
913 -912 113 0
-914 913 114 0
-914 -913 -114 0
914 913 -114 0
914 -913 114 0
-915 914 115 0
-915 -914 -115 0
915 914 -115 0
915 -914 115 0
-916 915 135 0
-916 -915 -135 0
916 915 -135 0
916 -915 135 0
-917 916 136 0
-917 -916 -136 0
917 916 -136 0
917 -916 136 0
-918 917 137 0
-918 -917 -137 0
918 917 -137 0
918 -917 137 0
-919 918 163 0
-919 -918 -163 0
919 918 -163 0
919 -918 163 0
-920 919 164 0
-920 -919 -164 0
920 919 -164 0
920 -919 164 0
-921 920 165 0
-921 -920 -165 0
921 920 -165 0
921 -920 165 0
-922 921 166 0
-922 -921 -166 0
922 921 -166 0
922 -921 166 0
-923 922 208 0
-923 -922 -208 0
923 922 -208 0
923 -922 208 0
-924 923 209 0
-924 -923 -209 0
924 923 -209 0
924 -923 209 0
-925 924 210 0
-925 -924 -210 0
925 924 -210 0
925 -924 210 0
-926 925 211 0
-926 -925 -211 0
926 925 -211 0
926 -925 211 0
-927 926 244 0
-927 -926 -244 0
927 926 -244 0
927 -926 244 0
-928 927 245 0
-928 -927 -245 0
928 927 -245 0
928 -927 245 0
-929 928 246 0
-929 -928 -246 0
929 928 -246 0
929 -928 246 0
-930 929 249 0
-930 -929 -249 0
930 929 -249 0
930 -929 249 0
-931 930 250 0
-931 -930 -250 0
931 930 -250 0
931 -930 250 0
-932 931 251 0
-932 -931 -251 0
932 931 -251 0
932 -931 251 0
-932 0
-933 2 11 0
-933 -2 -11 0
933 2 -11 0
933 -2 11 0
-934 933 32 0
-934 -933 -32 0
934 933 -32 0
934 -933 32 0
-935 934 43 0
-935 -934 -43 0
935 934 -43 0
935 -934 43 0
-936 935 48 0
-936 -935 -48 0
936 935 -48 0
936 -935 48 0
-937 936 62 0
-937 -936 -62 0
937 936 -62 0
937 -936 62 0
-938 937 73 0
-938 -937 -73 0
938 937 -73 0
938 -937 73 0
-939 938 74 0
-939 -938 -74 0
939 938 -74 0
939 -938 74 0
-940 939 75 0
-940 -939 -75 0
940 939 -75 0
940 -939 75 0
-941 940 76 0
-941 -940 -76 0
941 940 -76 0
941 -940 76 0
-942 941 99 0
-942 -941 -99 0
942 941 -99 0
942 -941 99 0
-943 942 100 0
-943 -942 -100 0
943 942 -100 0
943 -942 100 0
-944 943 101 0
-944 -943 -101 0
944 943 -101 0
944 -943 101 0
-945 944 114 0
-945 -944 -114 0
945 944 -114 0
945 -944 114 0
-946 945 115 0
-946 -945 -115 0
946 945 -115 0
946 -945 115 0
-947 946 118 0
-947 -946 -118 0
947 946 -118 0
947 -946 118 0
-948 947 119 0
-948 -947 -119 0
948 947 -119 0
948 -947 119 0
-949 948 120 0
-949 -948 -120 0
949 948 -120 0
949 -948 120 0
-950 949 140 0
-950 -949 -140 0
950 949 -140 0
950 -949 140 0
-951 950 141 0
-951 -950 -141 0
951 950 -141 0
951 -950 141 0
-952 951 142 0
-952 -951 -142 0
952 951 -142 0
952 -951 142 0
-953 952 168 0
-953 -952 -168 0
953 952 -168 0
953 -952 168 0
-954 953 169 0
-954 -953 -169 0
954 953 -169 0
954 -953 169 0
-955 954 170 0
-955 -954 -170 0
955 954 -170 0
955 -954 170 0
-956 955 171 0
-956 -955 -171 0
956 955 -171 0
956 -955 171 0
-957 956 213 0
-957 -956 -213 0
957 956 -213 0
957 -956 213 0
-958 957 214 0
-958 -957 -214 0
958 957 -214 0
958 -957 214 0
-959 958 215 0
-959 -958 -215 0
959 958 -215 0
959 -958 215 0
-960 959 216 0
-960 -959 -216 0
960 959 -216 0
960 -959 216 0
-961 960 224 0
-961 -960 -224 0
961 960 -224 0
961 -960 224 0
-962 961 225 0
-962 -961 -225 0
962 961 -225 0
962 -961 225 0
-963 962 226 0
-963 -962 -226 0
963 962 -226 0
963 -962 226 0
-964 963 250 0
-964 -963 -250 0
964 963 -250 0
964 -963 250 0
-965 964 251 0
-965 -964 -251 0
965 964 -251 0
965 -964 251 0
-965 0
-966 3 12 0
-966 -3 -12 0
966 3 -12 0
966 -3 12 0
-967 966 33 0
-967 -966 -33 0
967 966 -33 0
967 -966 33 0
-968 967 43 0
-968 -967 -43 0
968 967 -43 0
968 -967 43 0
-969 968 44 0
-969 -968 -44 0
969 968 -44 0
969 -968 44 0
-970 969 63 0
-970 -969 -63 0
970 969 -63 0
970 -969 63 0
-971 970 74 0
-971 -970 -74 0
971 970 -74 0
971 -970 74 0
-972 971 75 0
-972 -971 -75 0
972 971 -75 0
972 -971 75 0
-973 972 76 0
-973 -972 -76 0
973 972 -76 0
973 -972 76 0
-974 973 78 0
-974 -973 -78 0
974 973 -78 0
974 -973 78 0
-975 974 79 0
-975 -974 -79 0
975 974 -79 0
975 -974 79 0
-976 975 80 0
-976 -975 -80 0
976 975 -80 0
976 -975 80 0
-977 976 81 0
-977 -976 -81 0
977 976 -81 0
977 -976 81 0
-978 977 119 0
-978 -977 -119 0
978 977 -119 0
978 -977 119 0
-979 978 120 0
-979 -978 -120 0
979 978 -120 0
979 -978 120 0
-980 979 124 0
-980 -979 -124 0
980 979 -124 0
980 -979 124 0
-981 980 125 0
-981 -980 -125 0
981 980 -125 0
981 -980 125 0
-982 981 145 0
-982 -981 -145 0
982 981 -145 0
982 -981 145 0
-983 982 146 0
-983 -982 -146 0
983 982 -146 0
983 -982 146 0
-984 983 147 0
-984 -983 -147 0
984 983 -147 0
984 -983 147 0
-985 984 173 0
-985 -984 -173 0
985 984 -173 0
985 -984 173 0
-986 985 174 0
-986 -985 -174 0
986 985 -174 0
986 -985 174 0
-987 986 175 0
-987 -986 -175 0
987 986 -175 0
987 -986 175 0
-988 987 176 0
-988 -987 -176 0
988 987 -176 0
988 -987 176 0
-989 988 218 0
-989 -988 -218 0
989 988 -218 0
989 -988 218 0
-990 989 219 0
-990 -989 -219 0
990 989 -219 0
990 -989 219 0
-991 990 220 0
-991 -990 -220 0
991 990 -220 0
991 -990 220 0
-992 991 221 0
-992 -991 -221 0
992 991 -221 0
992 -991 221 0
-993 992 225 0
-993 -992 -225 0
993 992 -225 0
993 -992 225 0
-994 993 226 0
-994 -993 -226 0
994 993 -226 0
994 -993 226 0
-995 994 229 0
-995 -994 -229 0
995 994 -229 0
995 -994 229 0
-996 995 230 0
-996 -995 -230 0
996 995 -230 0
996 -995 230 0
-997 996 231 0
-997 -996 -231 0
997 996 -231 0
997 -996 231 0
-997 0
-998 4 7 0
-998 -4 -7 0
998 4 -7 0
998 -4 7 0
-999 998 34 0
-999 -998 -34 0
999 998 -34 0
999 -998 34 0
-1000 999 44 0
-1000 -999 -44 0
1000 999 -44 0
1000 -999 44 0
-1001 1000 45 0
-1001 -1000 -45 0
1001 1000 -45 0
1001 -1000 45 0
-1002 1001 64 0
-1002 -1001 -64 0
1002 1001 -64 0
1002 -1001 64 0
-1003 1002 79 0
-1003 -1002 -79 0
1003 1002 -79 0
1003 -1002 79 0
-1004 1003 80 0
-1004 -1003 -80 0
1004 1003 -80 0
1004 -1003 80 0
-1005 1004 81 0
-1005 -1004 -81 0
1005 1004 -81 0
1005 -1004 81 0
-1006 1005 83 0
-1006 -1005 -83 0
1006 1005 -83 0
1006 -1005 83 0
-1007 1006 84 0
-1007 -1006 -84 0
1007 1006 -84 0
1007 -1006 84 0
-1008 1007 85 0
-1008 -1007 -85 0
1008 1007 -85 0
1008 -1007 85 0
-1009 1008 86 0
-1009 -1008 -86 0
1009 1008 -86 0
1009 -1008 86 0
-1010 1009 123 0
-1010 -1009 -123 0
1010 1009 -123 0
1010 -1009 123 0
-1011 1010 124 0
-1011 -1010 -124 0
1011 1010 -124 0
1011 -1010 124 0
-1012 1011 125 0
-1012 -1011 -125 0
1012 1011 -125 0
1012 -1011 125 0
-1013 1012 128 0
-1013 -1012 -128 0
1013 1012 -128 0
1013 -1012 128 0
-1014 1013 129 0
-1014 -1013 -129 0
1014 1013 -129 0
1014 -1013 129 0
-1015 1014 130 0
-1015 -1014 -130 0
1015 1014 -130 0
1015 -1014 130 0
-1016 1015 150 0
-1016 -1015 -150 0
1016 1015 -150 0
1016 -1015 150 0
-1017 1016 151 0
-1017 -1016 -151 0
1017 1016 -151 0
1017 -1016 151 0
-1018 1017 152 0
-1018 -1017 -152 0
1018 1017 -152 0
1018 -1017 152 0
-1019 1018 178 0
-1019 -1018 -178 0
1019 1018 -178 0
1019 -1018 178 0
-1020 1019 179 0
-1020 -1019 -179 0
1020 1019 -179 0
1020 -1019 179 0
-1021 1020 180 0
-1021 -1020 -180 0
1021 1020 -180 0
1021 -1020 180 0
-1022 1021 181 0
-1022 -1021 -181 0
1022 1021 -181 0
1022 -1021 181 0
-1023 1022 193 0
-1023 -1022 -193 0
1023 1022 -193 0
1023 -1022 193 0
-1024 1023 194 0
-1024 -1023 -194 0
1024 1023 -194 0
1024 -1023 194 0
-1025 1024 195 0
-1025 -1024 -195 0
1025 1024 -195 0
1025 -1024 195 0
-1026 1025 196 0
-1026 -1025 -196 0
1026 1025 -196 0
1026 -1025 196 0
-1027 1026 230 0
-1027 -1026 -230 0
1027 1026 -230 0
1027 -1026 230 0
-1028 1027 231 0
-1028 -1027 -231 0
1028 1027 -231 0
1028 -1027 231 0
-1029 1028 234 0
-1029 -1028 -234 0
1029 1028 -234 0
1029 -1028 234 0
-1030 1029 235 0
-1030 -1029 -235 0
1030 1029 -235 0
1030 -1029 235 0
-1031 1030 236 0
-1031 -1030 -236 0
1031 1030 -236 0
1031 -1030 236 0
-1031 0
-1032 5 8 0
-1032 -5 -8 0
1032 5 -8 0
1032 -5 8 0
-1033 1032 35 0
-1033 -1032 -35 0
1033 1032 -35 0
1033 -1032 35 0
-1034 1033 45 0
-1034 -1033 -45 0
1034 1033 -45 0
1034 -1033 45 0
-1035 1034 46 0
-1035 -1034 -46 0
1035 1034 -46 0
1035 -1034 46 0
-1036 1035 65 0
-1036 -1035 -65 0
1036 1035 -65 0
1036 -1035 65 0
-1037 1036 84 0
-1037 -1036 -84 0
1037 1036 -84 0
1037 -1036 84 0
-1038 1037 85 0
-1038 -1037 -85 0
1038 1037 -85 0
1038 -1037 85 0
-1039 1038 86 0
-1039 -1038 -86 0
1039 1038 -86 0
1039 -1038 86 0
-1040 1039 88 0
-1040 -1039 -88 0
1040 1039 -88 0
1040 -1039 88 0
-1041 1040 89 0
-1041 -1040 -89 0
1041 1040 -89 0
1041 -1040 89 0
-1042 1041 90 0
-1042 -1041 -90 0
1042 1041 -90 0
1042 -1041 90 0
-1043 1042 91 0
-1043 -1042 -91 0
1043 1042 -91 0
1043 -1042 91 0
-1044 1043 103 0
-1044 -1043 -103 0
1044 1043 -103 0
1044 -1043 103 0
-1045 1044 104 0
-1045 -1044 -104 0
1045 1044 -104 0
1045 -1044 104 0
-1046 1045 105 0
-1046 -1045 -105 0
1046 1045 -105 0
1046 -1045 105 0
-1047 1046 129 0
-1047 -1046 -129 0
1047 1046 -129 0
1047 -1046 129 0
-1048 1047 130 0
-1048 -1047 -130 0
1048 1047 -130 0
1048 -1047 130 0
-1049 1048 155 0
-1049 -1048 -155 0
1049 1048 -155 0
1049 -1048 155 0
-1050 1049 156 0
-1050 -1049 -156 0
1050 1049 -156 0
1050 -1049 156 0
-1051 1050 157 0
-1051 -1050 -157 0
1051 1050 -157 0
1051 -1050 157 0
-1052 1051 183 0
-1052 -1051 -183 0
1052 1051 -183 0
1052 -1051 183 0
-1053 1052 184 0
-1053 -1052 -184 0
1053 1052 -184 0
1053 -1052 184 0
-1054 1053 185 0
-1054 -1053 -185 0
1054 1053 -185 0
1054 -1053 185 0
-1055 1054 186 0
-1055 -1054 -186 0
1055 1054 -186 0
1055 -1054 186 0
-1056 1055 198 0
-1056 -1055 -198 0
1056 1055 -198 0
1056 -1055 198 0
-1057 1056 199 0
-1057 -1056 -199 0
1057 1056 -199 0
1057 -1056 199 0
-1058 1057 200 0
-1058 -1057 -200 0
1058 1057 -200 0
1058 -1057 200 0
-1059 1058 201 0
-1059 -1058 -201 0
1059 1058 -201 0
1059 -1058 201 0
-1060 1059 235 0
-1060 -1059 -235 0
1060 1059 -235 0
1060 -1059 235 0
-1061 1060 236 0
-1061 -1060 -236 0
1061 1060 -236 0
1061 -1060 236 0
-1062 1061 239 0
-1062 -1061 -239 0
1062 1061 -239 0
1062 -1061 239 0
-1063 1062 240 0
-1063 -1062 -240 0
1063 1062 -240 0
1063 -1062 240 0
-1064 1063 241 0
-1064 -1063 -241 0
1064 1063 -241 0
1064 -1063 241 0
-1064 0
-1065 6 9 0
-1065 -6 -9 0
1065 6 -9 0
1065 -6 9 0
-1066 1065 36 0
-1066 -1065 -36 0
1066 1065 -36 0
1066 -1065 36 0
-1067 1066 46 0
-1067 -1066 -46 0
1067 1066 -46 0
1067 -1066 46 0
-1068 1067 47 0
-1068 -1067 -47 0
1068 1067 -47 0
1068 -1067 47 0
-1069 1068 66 0
-1069 -1068 -66 0
1069 1068 -66 0
1069 -1068 66 0
-1070 1069 89 0
-1070 -1069 -89 0
1070 1069 -89 0
1070 -1069 89 0
-1071 1070 90 0
-1071 -1070 -90 0
1071 1070 -90 0
1071 -1070 90 0
-1072 1071 91 0
-1072 -1071 -91 0
1072 1071 -91 0
1072 -1071 91 0
-1073 1072 94 0
-1073 -1072 -94 0
1073 1072 -94 0
1073 -1072 94 0
-1074 1073 95 0
-1074 -1073 -95 0
1074 1073 -95 0
1074 -1073 95 0
-1075 1074 96 0
-1075 -1074 -96 0
1075 1074 -96 0
1075 -1074 96 0
-1076 1075 104 0
-1076 -1075 -104 0
1076 1075 -104 0
1076 -1075 104 0
-1077 1076 105 0
-1077 -1076 -105 0
1077 1076 -105 0
1077 -1076 105 0
-1078 1077 108 0
-1078 -1077 -108 0
1078 1077 -108 0
1078 -1077 108 0
-1079 1078 109 0
-1079 -1078 -109 0
1079 1078 -109 0
1079 -1078 109 0
-1080 1079 110 0
-1080 -1079 -110 0
1080 1079 -110 0
1080 -1079 110 0
-1081 1080 160 0
-1081 -1080 -160 0
1081 1080 -160 0
1081 -1080 160 0
-1082 1081 161 0
-1082 -1081 -161 0
1082 1081 -161 0
1082 -1081 161 0
-1083 1082 162 0
-1083 -1082 -162 0
1083 1082 -162 0
1083 -1082 162 0
-1084 1083 188 0
-1084 -1083 -188 0
1084 1083 -188 0
1084 -1083 188 0
-1085 1084 189 0
-1085 -1084 -189 0
1085 1084 -189 0
1085 -1084 189 0
-1086 1085 190 0
-1086 -1085 -190 0
1086 1085 -190 0
1086 -1085 190 0
-1087 1086 191 0
-1087 -1086 -191 0
1087 1086 -191 0
1087 -1086 191 0
-1088 1087 203 0
-1088 -1087 -203 0
1088 1087 -203 0
1088 -1087 203 0
-1089 1088 204 0
-1089 -1088 -204 0
1089 1088 -204 0
1089 -1088 204 0
-1090 1089 205 0
-1090 -1089 -205 0
1090 1089 -205 0
1090 -1089 205 0
-1091 1090 206 0
-1091 -1090 -206 0
1091 1090 -206 0
1091 -1090 206 0
-1092 1091 240 0
-1092 -1091 -240 0
1092 1091 -240 0
1092 -1091 240 0
-1093 1092 241 0
-1093 -1092 -241 0
1093 1092 -241 0
1093 -1092 241 0
-1094 1093 245 0
-1094 -1093 -245 0
1094 1093 -245 0
1094 -1093 245 0
-1095 1094 246 0
-1095 -1094 -246 0
1095 1094 -246 0
1095 -1094 246 0
-1095 0
-1096 1 7 0
-1096 -1 -7 0
1096 1 -7 0
1096 -1 7 0
-1097 1096 16 0
-1097 -1096 -16 0
1097 1096 -16 0
1097 -1096 16 0
-1098 1097 53 0
-1098 -1097 -53 0
1098 1097 -53 0
1098 -1097 53 0
-1099 1098 54 0
-1099 -1098 -54 0
1099 1098 -54 0
1099 -1098 54 0
-1100 1099 67 0
-1100 -1099 -67 0
1100 1099 -67 0
1100 -1099 67 0
-1101 1100 93 0
-1101 -1100 -93 0
1101 1100 -93 0
1101 -1100 93 0
-1102 1101 94 0
-1102 -1101 -94 0
1102 1101 -94 0
1102 -1101 94 0
-1103 1102 95 0
-1103 -1102 -95 0
1103 1102 -95 0
1103 -1102 95 0
-1104 1103 96 0
-1104 -1103 -96 0
1104 1103 -96 0
1104 -1103 96 0
-1105 1104 97 0
-1105 -1104 -97 0
1105 1104 -97 0
1105 -1104 97 0
-1106 1105 98 0
-1106 -1105 -98 0
1106 1105 -98 0
1106 -1105 98 0
-1107 1106 99 0
-1107 -1106 -99 0
1107 1106 -99 0
1107 -1106 99 0
-1108 1107 100 0
-1108 -1107 -100 0
1108 1107 -100 0
1108 -1107 100 0
-1109 1108 101 0
-1109 -1108 -101 0
1109 1108 -101 0
1109 -1108 101 0
-1110 1109 102 0
-1110 -1109 -102 0
1110 1109 -102 0
1110 -1109 102 0
-1111 1110 123 0
-1111 -1110 -123 0
1111 1110 -123 0
1111 -1110 123 0
-1112 1111 124 0
-1112 -1111 -124 0
1112 1111 -124 0
1112 -1111 124 0
-1113 1112 125 0
-1113 -1112 -125 0
1113 1112 -125 0
1113 -1112 125 0
-1114 1113 126 0
-1114 -1113 -126 0
1114 1113 -126 0
1114 -1113 126 0
-1115 1114 128 0
-1115 -1114 -128 0
1115 1114 -128 0
1115 -1114 128 0
-1116 1115 129 0
-1116 -1115 -129 0
1116 1115 -129 0
1116 -1115 129 0
-1117 1116 130 0
-1117 -1116 -130 0
1117 1116 -130 0
1117 -1116 130 0
-1118 1117 131 0
-1118 -1117 -131 0
1118 1117 -131 0
1118 -1117 131 0
-1119 1118 139 0
-1119 -1118 -139 0
1119 1118 -139 0
1119 -1118 139 0
-1120 1119 140 0
-1120 -1119 -140 0
1120 1119 -140 0
1120 -1119 140 0
-1121 1120 143 0
-1121 -1120 -143 0
1121 1120 -143 0
1121 -1120 143 0
-1122 1121 144 0
-1122 -1121 -144 0
1122 1121 -144 0
1122 -1121 144 0
-1123 1122 145 0
-1123 -1122 -145 0
1123 1122 -145 0
1123 -1122 145 0
-1124 1123 163 0
-1124 -1123 -163 0
1124 1123 -163 0
1124 -1123 163 0
-1125 1124 164 0
-1125 -1124 -164 0
1125 1124 -164 0
1125 -1124 164 0
-1126 1125 165 0
-1126 -1125 -165 0
1126 1125 -165 0
1126 -1125 165 0
-1127 1126 166 0
-1127 -1126 -166 0
1127 1126 -166 0
1127 -1126 166 0
-1128 1127 167 0
-1128 -1127 -167 0
1128 1127 -167 0
1128 -1127 167 0
-1129 1128 193 0
-1129 -1128 -193 0
1129 1128 -193 0
1129 -1128 193 0
-1130 1129 194 0
-1130 -1129 -194 0
1130 1129 -194 0
1130 -1129 194 0
-1131 1130 195 0
-1131 -1130 -195 0
1131 1130 -195 0
1131 -1130 195 0
-1132 1131 196 0
-1132 -1131 -196 0
1132 1131 -196 0
1132 -1131 196 0
-1133 1132 197 0
-1133 -1132 -197 0
1133 1132 -197 0
1133 -1132 197 0
-1134 1133 238 0
-1134 -1133 -238 0
1134 1133 -238 0
1134 -1133 238 0
-1135 1134 239 0
-1135 -1134 -239 0
1135 1134 -239 0
1135 -1134 239 0
-1136 1135 240 0
-1136 -1135 -240 0
1136 1135 -240 0
1136 -1135 240 0
-1137 1136 241 0
-1137 -1136 -241 0
1137 1136 -241 0
1137 -1136 241 0
-1138 1137 242 0
-1138 -1137 -242 0
1138 1137 -242 0
1138 -1137 242 0
-1138 0
-1139 2 8 0
-1139 -2 -8 0
1139 2 -8 0
1139 -2 8 0
-1140 1139 17 0
-1140 -1139 -17 0
1140 1139 -17 0
1140 -1139 17 0
-1141 1140 49 0
-1141 -1140 -49 0
1141 1140 -49 0
1141 -1140 49 0
-1142 1141 54 0
-1142 -1141 -54 0
1142 1141 -54 0
1142 -1141 54 0
-1143 1142 68 0
-1143 -1142 -68 0
1143 1142 -68 0
1143 -1142 68 0
-1144 1143 73 0
-1144 -1143 -73 0
1144 1143 -73 0
1144 -1143 73 0
-1145 1144 74 0
-1145 -1144 -74 0
1145 1144 -74 0
1145 -1144 74 0
-1146 1145 75 0
-1146 -1145 -75 0
1146 1145 -75 0
1146 -1145 75 0
-1147 1146 76 0
-1147 -1146 -76 0
1147 1146 -76 0
1147 -1146 76 0
-1148 1147 77 0
-1148 -1147 -77 0
1148 1147 -77 0
1148 -1147 77 0
-1149 1148 99 0
-1149 -1148 -99 0
1149 1148 -99 0
1149 -1148 99 0
-1150 1149 100 0
-1150 -1149 -100 0
1150 1149 -100 0
1150 -1149 100 0
-1151 1150 101 0
-1151 -1150 -101 0
1151 1150 -101 0
1151 -1150 101 0
-1152 1151 102 0
-1152 -1151 -102 0
1152 1151 -102 0
1152 -1151 102 0
-1153 1152 103 0
-1153 -1152 -103 0
1153 1152 -103 0
1153 -1152 103 0
-1154 1153 104 0
-1154 -1153 -104 0
1154 1153 -104 0
1154 -1153 104 0
-1155 1154 105 0
-1155 -1154 -105 0
1155 1154 -105 0
1155 -1154 105 0
-1156 1155 106 0
-1156 -1155 -106 0
1156 1155 -106 0
1156 -1155 106 0
-1157 1156 129 0
-1157 -1156 -129 0
1157 1156 -129 0
1157 -1156 129 0
-1158 1157 130 0
-1158 -1157 -130 0
1158 1157 -130 0
1158 -1157 130 0
-1159 1158 131 0
-1159 -1158 -131 0
1159 1158 -131 0
1159 -1158 131 0
-1160 1159 144 0
-1160 -1159 -144 0
1160 1159 -144 0
1160 -1159 144 0
-1161 1160 145 0
-1161 -1160 -145 0
1161 1160 -145 0
1161 -1160 145 0
-1162 1161 148 0
-1162 -1161 -148 0
1162 1161 -148 0
1162 -1161 148 0
-1163 1162 149 0
-1163 -1162 -149 0
1163 1162 -149 0
1163 -1162 149 0
-1164 1163 150 0
-1164 -1163 -150 0
1164 1163 -150 0
1164 -1163 150 0
-1165 1164 168 0
-1165 -1164 -168 0
1165 1164 -168 0
1165 -1164 168 0
-1166 1165 169 0
-1166 -1165 -169 0
1166 1165 -169 0
1166 -1165 169 0
-1167 1166 170 0
-1167 -1166 -170 0
1167 1166 -170 0
1167 -1166 170 0
-1168 1167 171 0
-1168 -1167 -171 0
1168 1167 -171 0
1168 -1167 171 0
-1169 1168 172 0
-1169 -1168 -172 0
1169 1168 -172 0
1169 -1168 172 0
-1170 1169 198 0
-1170 -1169 -198 0
1170 1169 -198 0
1170 -1169 198 0
-1171 1170 199 0
-1171 -1170 -199 0
1171 1170 -199 0
1171 -1170 199 0
-1172 1171 200 0
-1172 -1171 -200 0
1172 1171 -200 0
1172 -1171 200 0
-1173 1172 201 0
-1173 -1172 -201 0
1173 1172 -201 0
1173 -1172 201 0
-1174 1173 202 0
-1174 -1173 -202 0
1174 1173 -202 0
1174 -1173 202 0
-1175 1174 243 0
-1175 -1174 -243 0
1175 1174 -243 0
1175 -1174 243 0
-1176 1175 244 0
-1176 -1175 -244 0
1176 1175 -244 0
1176 -1175 244 0
-1177 1176 245 0
-1177 -1176 -245 0
1177 1176 -245 0
1177 -1176 245 0
-1178 1177 246 0
-1178 -1177 -246 0
1178 1177 -246 0
1178 -1177 246 0
-1179 1178 247 0
-1179 -1178 -247 0
1179 1178 -247 0
1179 -1178 247 0
-1179 0
-1180 3 9 0
-1180 -3 -9 0
1180 3 -9 0
1180 -3 9 0
-1181 1180 18 0
-1181 -1180 -18 0
1181 1180 -18 0
1181 -1180 18 0
-1182 1181 49 0
-1182 -1181 -49 0
1182 1181 -49 0
1182 -1181 49 0
-1183 1182 50 0
-1183 -1182 -50 0
1183 1182 -50 0
1183 -1182 50 0
-1184 1183 69 0
-1184 -1183 -69 0
1184 1183 -69 0
1184 -1183 69 0
-1185 1184 74 0
-1185 -1184 -74 0
1185 1184 -74 0
1185 -1184 74 0
-1186 1185 75 0
-1186 -1185 -75 0
1186 1185 -75 0
1186 -1185 75 0
-1187 1186 76 0
-1187 -1186 -76 0
1187 1186 -76 0
1187 -1186 76 0
-1188 1187 77 0
-1188 -1187 -77 0
1188 1187 -77 0
1188 -1187 77 0
-1189 1188 78 0
-1189 -1188 -78 0
1189 1188 -78 0
1189 -1188 78 0
-1190 1189 79 0
-1190 -1189 -79 0
1190 1189 -79 0
1190 -1189 79 0
-1191 1190 80 0
-1191 -1190 -80 0
1191 1190 -80 0
1191 -1190 80 0
-1192 1191 81 0
-1192 -1191 -81 0
1192 1191 -81 0
1192 -1191 81 0
-1193 1192 82 0
-1193 -1192 -82 0
1193 1192 -82 0
1193 -1192 82 0
-1194 1193 104 0
-1194 -1193 -104 0
1194 1193 -104 0
1194 -1193 104 0
-1195 1194 105 0
-1195 -1194 -105 0
1195 1194 -105 0
1195 -1194 105 0
-1196 1195 106 0
-1196 -1195 -106 0
1196 1195 -106 0
1196 -1195 106 0
-1197 1196 108 0
-1197 -1196 -108 0
1197 1196 -108 0
1197 -1196 108 0
-1198 1197 109 0
-1198 -1197 -109 0
1198 1197 -109 0
1198 -1197 109 0
-1199 1198 110 0
-1199 -1198 -110 0
1199 1198 -110 0
1199 -1198 110 0
-1200 1199 111 0
-1200 -1199 -111 0
1200 1199 -111 0
1200 -1199 111 0
-1201 1200 149 0
-1201 -1200 -149 0
1201 1200 -149 0
1201 -1200 149 0
-1202 1201 150 0
-1202 -1201 -150 0
1202 1201 -150 0
1202 -1201 150 0
-1203 1202 154 0
-1203 -1202 -154 0
1203 1202 -154 0
1203 -1202 154 0
-1204 1203 155 0
-1204 -1203 -155 0
1204 1203 -155 0
1204 -1203 155 0
-1205 1204 173 0
-1205 -1204 -173 0
1205 1204 -173 0
1205 -1204 173 0
-1206 1205 174 0
-1206 -1205 -174 0
1206 1205 -174 0
1206 -1205 174 0
-1207 1206 175 0
-1207 -1206 -175 0
1207 1206 -175 0
1207 -1206 175 0
-1208 1207 176 0
-1208 -1207 -176 0
1208 1207 -176 0
1208 -1207 176 0
-1209 1208 177 0
-1209 -1208 -177 0
1209 1208 -177 0
1209 -1208 177 0
-1210 1209 203 0
-1210 -1209 -203 0
1210 1209 -203 0
1210 -1209 203 0
-1211 1210 204 0
-1211 -1210 -204 0
1211 1210 -204 0
1211 -1210 204 0
-1212 1211 205 0
-1212 -1211 -205 0
1212 1211 -205 0
1212 -1211 205 0
-1213 1212 206 0
-1213 -1212 -206 0
1213 1212 -206 0
1213 -1212 206 0
-1214 1213 207 0
-1214 -1213 -207 0
1214 1213 -207 0
1214 -1213 207 0
-1215 1214 248 0
-1215 -1214 -248 0
1215 1214 -248 0
1215 -1214 248 0
-1216 1215 249 0
-1216 -1215 -249 0
1216 1215 -249 0
1216 -1215 249 0
-1217 1216 250 0
-1217 -1216 -250 0
1217 1216 -250 0
1217 -1216 250 0
-1218 1217 251 0
-1218 -1217 -251 0
1218 1217 -251 0
1218 -1217 251 0
-1219 1218 252 0
-1219 -1218 -252 0
1219 1218 -252 0
1219 -1218 252 0
-1219 0
-1220 4 10 0
-1220 -4 -10 0
1220 4 -10 0
1220 -4 10 0
-1221 1220 13 0
-1221 -1220 -13 0
1221 1220 -13 0
1221 -1220 13 0
-1222 1221 50 0
-1222 -1221 -50 0
1222 1221 -50 0
1222 -1221 50 0
-1223 1222 51 0
-1223 -1222 -51 0
1223 1222 -51 0
1223 -1222 51 0
-1224 1223 70 0
-1224 -1223 -70 0
1224 1223 -70 0
1224 -1223 70 0
-1225 1224 79 0
-1225 -1224 -79 0
1225 1224 -79 0
1225 -1224 79 0
-1226 1225 80 0
-1226 -1225 -80 0
1226 1225 -80 0
1226 -1225 80 0
-1227 1226 81 0
-1227 -1226 -81 0
1227 1226 -81 0
1227 -1226 81 0
-1228 1227 82 0
-1228 -1227 -82 0
1228 1227 -82 0
1228 -1227 82 0
-1229 1228 83 0
-1229 -1228 -83 0
1229 1228 -83 0
1229 -1228 83 0
-1230 1229 84 0
-1230 -1229 -84 0
1230 1229 -84 0
1230 -1229 84 0
-1231 1230 85 0
-1231 -1230 -85 0
1231 1230 -85 0
1231 -1230 85 0
-1232 1231 86 0
-1232 -1231 -86 0
1232 1231 -86 0
1232 -1231 86 0
-1233 1232 87 0
-1233 -1232 -87 0
1233 1232 -87 0
1233 -1232 87 0
-1234 1233 109 0
-1234 -1233 -109 0
1234 1233 -109 0
1234 -1233 109 0
-1235 1234 110 0
-1235 -1234 -110 0
1235 1234 -110 0
1235 -1234 110 0
-1236 1235 111 0
-1236 -1235 -111 0
1236 1235 -111 0
1236 -1235 111 0
-1237 1236 113 0
-1237 -1236 -113 0
1237 1236 -113 0
1237 -1236 113 0
-1238 1237 114 0
-1238 -1237 -114 0
1238 1237 -114 0
1238 -1237 114 0
-1239 1238 115 0
-1239 -1238 -115 0
1239 1238 -115 0
1239 -1238 115 0
-1240 1239 116 0
-1240 -1239 -116 0
1240 1239 -116 0
1240 -1239 116 0
-1241 1240 153 0
-1241 -1240 -153 0
1241 1240 -153 0
1241 -1240 153 0
-1242 1241 154 0
-1242 -1241 -154 0
1242 1241 -154 0
1242 -1241 154 0
-1243 1242 155 0
-1243 -1242 -155 0
1243 1242 -155 0
1243 -1242 155 0
-1244 1243 158 0
-1244 -1243 -158 0
1244 1243 -158 0
1244 -1243 158 0
-1245 1244 159 0
-1245 -1244 -159 0
1245 1244 -159 0
1245 -1244 159 0
-1246 1245 160 0
-1246 -1245 -160 0
1246 1245 -160 0
1246 -1245 160 0
-1247 1246 178 0
-1247 -1246 -178 0
1247 1246 -178 0
1247 -1246 178 0
-1248 1247 179 0
-1248 -1247 -179 0
1248 1247 -179 0
1248 -1247 179 0
-1249 1248 180 0
-1249 -1248 -180 0
1249 1248 -180 0
1249 -1248 180 0
-1250 1249 181 0
-1250 -1249 -181 0
1250 1249 -181 0
1250 -1249 181 0
-1251 1250 182 0
-1251 -1250 -182 0
1251 1250 -182 0
1251 -1250 182 0
-1252 1251 208 0
-1252 -1251 -208 0
1252 1251 -208 0
1252 -1251 208 0
-1253 1252 209 0
-1253 -1252 -209 0
1253 1252 -209 0
1253 -1252 209 0
-1254 1253 210 0
-1254 -1253 -210 0
1254 1253 -210 0
1254 -1253 210 0
-1255 1254 211 0
-1255 -1254 -211 0
1255 1254 -211 0
1255 -1254 211 0
-1256 1255 212 0
-1256 -1255 -212 0
1256 1255 -212 0
1256 -1255 212 0
-1257 1256 223 0
-1257 -1256 -223 0
1257 1256 -223 0
1257 -1256 223 0
-1258 1257 224 0
-1258 -1257 -224 0
1258 1257 -224 0
1258 -1257 224 0
-1259 1258 225 0
-1259 -1258 -225 0
1259 1258 -225 0
1259 -1258 225 0
-1260 1259 226 0
-1260 -1259 -226 0
1260 1259 -226 0
1260 -1259 226 0
-1261 1260 227 0
-1261 -1260 -227 0
1261 1260 -227 0
1261 -1260 227 0
-1261 0
-1262 5 11 0
-1262 -5 -11 0
1262 5 -11 0
1262 -5 11 0
-1263 1262 14 0
-1263 -1262 -14 0
1263 1262 -14 0
1263 -1262 14 0
-1264 1263 51 0
-1264 -1263 -51 0
1264 1263 -51 0
1264 -1263 51 0
-1265 1264 52 0
-1265 -1264 -52 0
1265 1264 -52 0
1265 -1264 52 0
-1266 1265 71 0
-1266 -1265 -71 0
1266 1265 -71 0
1266 -1265 71 0
-1267 1266 84 0
-1267 -1266 -84 0
1267 1266 -84 0
1267 -1266 84 0
-1268 1267 85 0
-1268 -1267 -85 0
1268 1267 -85 0
1268 -1267 85 0
-1269 1268 86 0
-1269 -1268 -86 0
1269 1268 -86 0
1269 -1268 86 0
-1270 1269 87 0
-1270 -1269 -87 0
1270 1269 -87 0
1270 -1269 87 0
-1271 1270 88 0
-1271 -1270 -88 0
1271 1270 -88 0
1271 -1270 88 0
-1272 1271 89 0
-1272 -1271 -89 0
1272 1271 -89 0
1272 -1271 89 0
-1273 1272 90 0
-1273 -1272 -90 0
1273 1272 -90 0
1273 -1272 90 0
-1274 1273 91 0
-1274 -1273 -91 0
1274 1273 -91 0
1274 -1273 91 0
-1275 1274 92 0
-1275 -1274 -92 0
1275 1274 -92 0
1275 -1274 92 0
-1276 1275 114 0
-1276 -1275 -114 0
1276 1275 -114 0
1276 -1275 114 0
-1277 1276 115 0
-1277 -1276 -115 0
1277 1276 -115 0
1277 -1276 115 0
-1278 1277 116 0
-1278 -1277 -116 0
1278 1277 -116 0
1278 -1277 116 0
-1279 1278 118 0
-1279 -1278 -118 0
1279 1278 -118 0
1279 -1278 118 0
-1280 1279 119 0
-1280 -1279 -119 0
1280 1279 -119 0
1280 -1279 119 0
-1281 1280 120 0
-1281 -1280 -120 0
1281 1280 -120 0
1281 -1280 120 0
-1282 1281 121 0
-1282 -1281 -121 0
1282 1281 -121 0
1282 -1281 121 0
-1283 1282 133 0
-1283 -1282 -133 0
1283 1282 -133 0
1283 -1282 133 0
-1284 1283 134 0
-1284 -1283 -134 0
1284 1283 -134 0
1284 -1283 134 0
-1285 1284 135 0
-1285 -1284 -135 0
1285 1284 -135 0
1285 -1284 135 0
-1286 1285 159 0
-1286 -1285 -159 0
1286 1285 -159 0
1286 -1285 159 0
-1287 1286 160 0
-1287 -1286 -160 0
1287 1286 -160 0
1287 -1286 160 0
-1288 1287 183 0
-1288 -1287 -183 0
1288 1287 -183 0
1288 -1287 183 0
-1289 1288 184 0
-1289 -1288 -184 0
1289 1288 -184 0
1289 -1288 184 0
-1290 1289 185 0
-1290 -1289 -185 0
1290 1289 -185 0
1290 -1289 185 0
-1291 1290 186 0
-1291 -1290 -186 0
1291 1290 -186 0
1291 -1290 186 0
-1292 1291 187 0
-1292 -1291 -187 0
1292 1291 -187 0
1292 -1291 187 0
-1293 1292 213 0
-1293 -1292 -213 0
1293 1292 -213 0
1293 -1292 213 0
-1294 1293 214 0
-1294 -1293 -214 0
1294 1293 -214 0
1294 -1293 214 0
-1295 1294 215 0
-1295 -1294 -215 0
1295 1294 -215 0
1295 -1294 215 0
-1296 1295 216 0
-1296 -1295 -216 0
1296 1295 -216 0
1296 -1295 216 0
-1297 1296 217 0
-1297 -1296 -217 0
1297 1296 -217 0
1297 -1296 217 0
-1298 1297 228 0
-1298 -1297 -228 0
1298 1297 -228 0
1298 -1297 228 0
-1299 1298 229 0
-1299 -1298 -229 0
1299 1298 -229 0
1299 -1298 229 0
-1300 1299 230 0
-1300 -1299 -230 0
1300 1299 -230 0
1300 -1299 230 0
-1301 1300 231 0
-1301 -1300 -231 0
1301 1300 -231 0
1301 -1300 231 0
-1302 1301 232 0
-1302 -1301 -232 0
1302 1301 -232 0
1302 -1301 232 0
-1302 0
-1303 6 12 0
-1303 -6 -12 0
1303 6 -12 0
1303 -6 12 0
-1304 1303 15 0
-1304 -1303 -15 0
1304 1303 -15 0
1304 -1303 15 0
-1305 1304 52 0
-1305 -1304 -52 0
1305 1304 -52 0
1305 -1304 52 0
-1306 1305 53 0
-1306 -1305 -53 0
1306 1305 -53 0
1306 -1305 53 0
-1307 1306 72 0
-1307 -1306 -72 0
1307 1306 -72 0
1307 -1306 72 0
-1308 1307 89 0
-1308 -1307 -89 0
1308 1307 -89 0
1308 -1307 89 0
-1309 1308 90 0
-1309 -1308 -90 0
1309 1308 -90 0
1309 -1308 90 0
-1310 1309 91 0
-1310 -1309 -91 0
1310 1309 -91 0
1310 -1309 91 0
-1311 1310 92 0
-1311 -1310 -92 0
1311 1310 -92 0
1311 -1310 92 0
-1312 1311 94 0
-1312 -1311 -94 0
1312 1311 -94 0
1312 -1311 94 0
-1313 1312 95 0
-1313 -1312 -95 0
1313 1312 -95 0
1313 -1312 95 0
-1314 1313 96 0
-1314 -1313 -96 0
1314 1313 -96 0
1314 -1313 96 0
-1315 1314 97 0
-1315 -1314 -97 0
1315 1314 -97 0
1315 -1314 97 0
-1316 1315 119 0
-1316 -1315 -119 0
1316 1315 -119 0
1316 -1315 119 0
-1317 1316 120 0
-1317 -1316 -120 0
1317 1316 -120 0
1317 -1316 120 0
-1318 1317 121 0
-1318 -1317 -121 0
1318 1317 -121 0
1318 -1317 121 0
-1319 1318 124 0
-1319 -1318 -124 0
1319 1318 -124 0
1319 -1318 124 0
-1320 1319 125 0
-1320 -1319 -125 0
1320 1319 -125 0
1320 -1319 125 0
-1321 1320 126 0
-1321 -1320 -126 0
1321 1320 -126 0
1321 -1320 126 0
-1322 1321 134 0
-1322 -1321 -134 0
1322 1321 -134 0
1322 -1321 134 0
-1323 1322 135 0
-1323 -1322 -135 0
1323 1322 -135 0
1323 -1322 135 0
-1324 1323 138 0
-1324 -1323 -138 0
1324 1323 -138 0
1324 -1323 138 0
-1325 1324 139 0
-1325 -1324 -139 0
1325 1324 -139 0
1325 -1324 139 0
-1326 1325 140 0
-1326 -1325 -140 0
1326 1325 -140 0
1326 -1325 140 0
-1327 1326 188 0
-1327 -1326 -188 0
1327 1326 -188 0
1327 -1326 188 0
-1328 1327 189 0
-1328 -1327 -189 0
1328 1327 -189 0
1328 -1327 189 0
-1329 1328 190 0
-1329 -1328 -190 0
1329 1328 -190 0
1329 -1328 190 0
-1330 1329 191 0
-1330 -1329 -191 0
1330 1329 -191 0
1330 -1329 191 0
-1331 1330 192 0
-1331 -1330 -192 0
1331 1330 -192 0
1331 -1330 192 0
-1332 1331 218 0
-1332 -1331 -218 0
1332 1331 -218 0
1332 -1331 218 0
-1333 1332 219 0
-1333 -1332 -219 0
1333 1332 -219 0
1333 -1332 219 0
-1334 1333 220 0
-1334 -1333 -220 0
1334 1333 -220 0
1334 -1333 220 0
-1335 1334 221 0
-1335 -1334 -221 0
1335 1334 -221 0
1335 -1334 221 0
-1336 1335 222 0
-1336 -1335 -222 0
1336 1335 -222 0
1336 -1335 222 0
-1337 1336 233 0
-1337 -1336 -233 0
1337 1336 -233 0
1337 -1336 233 0
-1338 1337 234 0
-1338 -1337 -234 0
1338 1337 -234 0
1338 -1337 234 0
-1339 1338 235 0
-1339 -1338 -235 0
1339 1338 -235 0
1339 -1338 235 0
-1340 1339 236 0
-1340 -1339 -236 0
1340 1339 -236 0
1340 -1339 236 0
-1341 1340 237 0
-1341 -1340 -237 0
1341 1340 -237 0
1341 -1340 237 0
-1341 0
-1342 7 13 0
-1342 -7 -13 0
1342 7 -13 0
1342 -7 13 0
-1343 1342 22 0
-1343 -1342 -22 0
1343 1342 -22 0
1343 -1342 22 0
-1344 1343 37 0
-1344 -1343 -37 0
1344 1343 -37 0
1344 -1343 37 0
-1345 1344 59 0
-1345 -1344 -59 0
1345 1344 -59 0
1345 -1344 59 0
-1346 1345 60 0
-1346 -1345 -60 0
1346 1345 -60 0
1346 -1345 60 0
-1347 1346 90 0
-1347 -1346 -90 0
1347 1346 -90 0
1347 -1346 90 0
-1348 1347 123 0
-1348 -1347 -123 0
1348 1347 -123 0
1348 -1347 123 0
-1349 1348 124 0
-1349 -1348 -124 0
1349 1348 -124 0
1349 -1348 124 0
-1350 1349 125 0
-1350 -1349 -125 0
1350 1349 -125 0
1350 -1349 125 0
-1351 1350 126 0
-1351 -1350 -126 0
1351 1350 -126 0
1351 -1350 126 0
-1352 1351 127 0
-1352 -1351 -127 0
1352 1351 -127 0
1352 -1351 127 0
-1353 1352 128 0
-1353 -1352 -128 0
1353 1352 -128 0
1353 -1352 128 0
-1354 1353 129 0
-1354 -1353 -129 0
1354 1353 -129 0
1354 -1353 129 0
-1355 1354 130 0
-1355 -1354 -130 0
1355 1354 -130 0
1355 -1354 130 0
-1356 1355 131 0
-1356 -1355 -131 0
1356 1355 -131 0
1356 -1355 131 0
-1357 1356 132 0
-1357 -1356 -132 0
1357 1356 -132 0
1357 -1356 132 0
-1358 1357 153 0
-1358 -1357 -153 0
1358 1357 -153 0
1358 -1357 153 0
-1359 1358 154 0
-1359 -1358 -154 0
1359 1358 -154 0
1359 -1358 154 0
-1360 1359 155 0
-1360 -1359 -155 0
1360 1359 -155 0
1360 -1359 155 0
-1361 1360 156 0
-1361 -1360 -156 0
1361 1360 -156 0
1361 -1360 156 0
-1362 1361 158 0
-1362 -1361 -158 0
1362 1361 -158 0
1362 -1361 158 0
-1363 1362 159 0
-1363 -1362 -159 0
1363 1362 -159 0
1363 -1362 159 0
-1364 1363 160 0
-1364 -1363 -160 0
1364 1363 -160 0
1364 -1363 160 0
-1365 1364 161 0
-1365 -1364 -161 0
1365 1364 -161 0
1365 -1364 161 0
-1366 1365 170 0
-1366 -1365 -170 0
1366 1365 -170 0
1366 -1365 170 0
-1367 1366 174 0
-1367 -1366 -174 0
1367 1366 -174 0
1367 -1366 174 0
-1368 1367 175 0
-1368 -1367 -175 0
1368 1367 -175 0
1368 -1367 175 0
-1369 1368 193 0
-1369 -1368 -193 0
1369 1368 -193 0
1369 -1368 193 0
-1370 1369 194 0
-1370 -1369 -194 0
1370 1369 -194 0
1370 -1369 194 0
-1371 1370 195 0
-1371 -1370 -195 0
1371 1370 -195 0
1371 -1370 195 0
-1372 1371 223 0
-1372 -1371 -223 0
1372 1371 -223 0
1372 -1371 223 0
-1373 1372 224 0
-1373 -1372 -224 0
1373 1372 -224 0
1373 -1372 224 0
-1374 1373 225 0
-1374 -1373 -225 0
1374 1373 -225 0
1374 -1373 225 0
-1374 0
-1375 8 14 0
-1375 -8 -14 0
1375 8 -14 0
1375 -8 14 0
-1376 1375 23 0
-1376 -1375 -23 0
1376 1375 -23 0
1376 -1375 23 0
-1377 1376 38 0
-1377 -1376 -38 0
1377 1376 -38 0
1377 -1376 38 0
-1378 1377 55 0
-1378 -1377 -55 0
1378 1377 -55 0
1378 -1377 55 0
-1379 1378 60 0
-1379 -1378 -60 0
1379 1378 -60 0
1379 -1378 60 0
-1380 1379 95 0
-1380 -1379 -95 0
1380 1379 -95 0
1380 -1379 95 0
-1381 1380 103 0
-1381 -1380 -103 0
1381 1380 -103 0
1381 -1380 103 0
-1382 1381 104 0
-1382 -1381 -104 0
1382 1381 -104 0
1382 -1381 104 0
-1383 1382 105 0
-1383 -1382 -105 0
1383 1382 -105 0
1383 -1382 105 0
-1384 1383 106 0
-1384 -1383 -106 0
1384 1383 -106 0
1384 -1383 106 0
-1385 1384 107 0
-1385 -1384 -107 0
1385 1384 -107 0
1385 -1384 107 0
-1386 1385 129 0
-1386 -1385 -129 0
1386 1385 -129 0
1386 -1385 129 0
-1387 1386 130 0
-1387 -1386 -130 0
1387 1386 -130 0
1387 -1386 130 0
-1388 1387 131 0
-1388 -1387 -131 0
1388 1387 -131 0
1388 -1387 131 0
-1389 1388 132 0
-1389 -1388 -132 0
1389 1388 -132 0
1389 -1388 132 0
-1390 1389 133 0
-1390 -1389 -133 0
1390 1389 -133 0
1390 -1389 133 0
-1391 1390 134 0
-1391 -1390 -134 0
1391 1390 -134 0
1391 -1390 134 0
-1392 1391 135 0
-1392 -1391 -135 0
1392 1391 -135 0
1392 -1391 135 0
-1393 1392 136 0
-1393 -1392 -136 0
1393 1392 -136 0
1393 -1392 136 0
-1394 1393 159 0
-1394 -1393 -159 0
1394 1393 -159 0
1394 -1393 159 0
-1395 1394 160 0
-1395 -1394 -160 0
1395 1394 -160 0
1395 -1394 160 0
-1396 1395 161 0
-1396 -1395 -161 0
1396 1395 -161 0
1396 -1395 161 0
-1397 1396 175 0
-1397 -1396 -175 0
1397 1396 -175 0
1397 -1396 175 0
-1398 1397 179 0
-1398 -1397 -179 0
1398 1397 -179 0
1398 -1397 179 0
-1399 1398 180 0
-1399 -1398 -180 0
1399 1398 -180 0
1399 -1398 180 0
-1400 1399 198 0
-1400 -1399 -198 0
1400 1399 -198 0
1400 -1399 198 0
-1401 1400 199 0
-1401 -1400 -199 0
1401 1400 -199 0
1401 -1400 199 0
-1402 1401 200 0
-1402 -1401 -200 0
1402 1401 -200 0
1402 -1401 200 0
-1403 1402 228 0
-1403 -1402 -228 0
1403 1402 -228 0
1403 -1402 228 0
-1404 1403 229 0
-1404 -1403 -229 0
1404 1403 -229 0
1404 -1403 229 0
-1405 1404 230 0
-1405 -1404 -230 0
1405 1404 -230 0
1405 -1404 230 0
-1405 0
-1406 9 15 0
-1406 -9 -15 0
1406 9 -15 0
1406 -9 15 0
-1407 1406 24 0
-1407 -1406 -24 0
1407 1406 -24 0
1407 -1406 24 0
-1408 1407 39 0
-1408 -1407 -39 0
1408 1407 -39 0
1408 -1407 39 0
-1409 1408 55 0
-1409 -1408 -55 0
1409 1408 -55 0
1409 -1408 55 0
-1410 1409 56 0
-1410 -1409 -56 0
1410 1409 -56 0
1410 -1409 56 0
-1411 1410 100 0
-1411 -1410 -100 0
1411 1410 -100 0
1411 -1410 100 0
-1412 1411 104 0
-1412 -1411 -104 0
1412 1411 -104 0
1412 -1411 104 0
-1413 1412 105 0
-1413 -1412 -105 0
1413 1412 -105 0
1413 -1412 105 0
-1414 1413 106 0
-1414 -1413 -106 0
1414 1413 -106 0
1414 -1413 106 0
-1415 1414 107 0
-1415 -1414 -107 0
1415 1414 -107 0
1415 -1414 107 0
-1416 1415 108 0
-1416 -1415 -108 0
1416 1415 -108 0
1416 -1415 108 0
-1417 1416 109 0
-1417 -1416 -109 0
1417 1416 -109 0
1417 -1416 109 0
-1418 1417 110 0
-1418 -1417 -110 0
1418 1417 -110 0
1418 -1417 110 0
-1419 1418 111 0
-1419 -1418 -111 0
1419 1418 -111 0
1419 -1418 111 0
-1420 1419 112 0
-1420 -1419 -112 0
1420 1419 -112 0
1420 -1419 112 0
-1421 1420 134 0
-1421 -1420 -134 0
1421 1420 -134 0
1421 -1420 134 0
-1422 1421 135 0
-1422 -1421 -135 0
1422 1421 -135 0
1422 -1421 135 0
-1423 1422 136 0
-1423 -1422 -136 0
1423 1422 -136 0
1423 -1422 136 0
-1424 1423 138 0
-1424 -1423 -138 0
1424 1423 -138 0
1424 -1423 138 0
-1425 1424 139 0
-1425 -1424 -139 0
1425 1424 -139 0
1425 -1424 139 0
-1426 1425 140 0
-1426 -1425 -140 0
1426 1425 -140 0
1426 -1425 140 0
-1427 1426 141 0
-1427 -1426 -141 0
1427 1426 -141 0
1427 -1426 141 0
-1428 1427 180 0
-1428 -1427 -180 0
1428 1427 -180 0
1428 -1427 180 0
-1429 1428 185 0
-1429 -1428 -185 0
1429 1428 -185 0
1429 -1428 185 0
-1430 1429 203 0
-1430 -1429 -203 0
1430 1429 -203 0
1430 -1429 203 0
-1431 1430 204 0
-1431 -1430 -204 0
1431 1430 -204 0
1431 -1430 204 0
-1432 1431 205 0
-1432 -1431 -205 0
1432 1431 -205 0
1432 -1431 205 0
-1433 1432 233 0
-1433 -1432 -233 0
1433 1432 -233 0
1433 -1432 233 0
-1434 1433 234 0
-1434 -1433 -234 0
1434 1433 -234 0
1434 -1433 234 0
-1435 1434 235 0
-1435 -1434 -235 0
1435 1434 -235 0
1435 -1434 235 0
-1435 0
-1436 10 16 0
-1436 -10 -16 0
1436 10 -16 0
1436 -10 16 0
-1437 1436 19 0
-1437 -1436 -19 0
1437 1436 -19 0
1437 -1436 19 0
-1438 1437 40 0
-1438 -1437 -40 0
1438 1437 -40 0
1438 -1437 40 0
-1439 1438 56 0
-1439 -1438 -56 0
1439 1438 -56 0
1439 -1438 56 0
-1440 1439 57 0
-1440 -1439 -57 0
1440 1439 -57 0
1440 -1439 57 0
-1441 1440 75 0
-1441 -1440 -75 0
1441 1440 -75 0
1441 -1440 75 0
-1442 1441 109 0
-1442 -1441 -109 0
1442 1441 -109 0
1442 -1441 109 0
-1443 1442 110 0
-1443 -1442 -110 0
1443 1442 -110 0
1443 -1442 110 0
-1444 1443 111 0
-1444 -1443 -111 0
1444 1443 -111 0
1444 -1443 111 0
-1445 1444 112 0
-1445 -1444 -112 0
1445 1444 -112 0
1445 -1444 112 0
-1446 1445 113 0
-1446 -1445 -113 0
1446 1445 -113 0
1446 -1445 113 0
-1447 1446 114 0
-1447 -1446 -114 0
1447 1446 -114 0
1447 -1446 114 0
-1448 1447 115 0
-1448 -1447 -115 0
1448 1447 -115 0
1448 -1447 115 0
-1449 1448 116 0
-1449 -1448 -116 0
1449 1448 -116 0
1449 -1448 116 0
-1450 1449 117 0
-1450 -1449 -117 0
1450 1449 -117 0
1450 -1449 117 0
-1451 1450 139 0
-1451 -1450 -139 0
1451 1450 -139 0
1451 -1450 139 0
-1452 1451 140 0
-1452 -1451 -140 0
1452 1451 -140 0
1452 -1451 140 0
-1453 1452 141 0
-1453 -1452 -141 0
1453 1452 -141 0
1453 -1452 141 0
-1454 1453 143 0
-1454 -1453 -143 0
1454 1453 -143 0
1454 -1453 143 0
-1455 1454 144 0
-1455 -1454 -144 0
1455 1454 -144 0
1455 -1454 144 0
-1456 1455 145 0
-1456 -1455 -145 0
1456 1455 -145 0
1456 -1455 145 0
-1457 1456 146 0
-1457 -1456 -146 0
1457 1456 -146 0
1457 -1456 146 0
-1458 1457 184 0
-1458 -1457 -184 0
1458 1457 -184 0
1458 -1457 184 0
-1459 1458 185 0
-1459 -1458 -185 0
1459 1458 -185 0
1459 -1458 185 0
-1460 1459 189 0
-1460 -1459 -189 0
1460 1459 -189 0
1460 -1459 189 0
-1461 1460 190 0
-1461 -1460 -190 0
1461 1460 -190 0
1461 -1460 190 0
-1462 1461 208 0
-1462 -1461 -208 0
1462 1461 -208 0
1462 -1461 208 0
-1463 1462 209 0
-1463 -1462 -209 0
1463 1462 -209 0
1463 -1462 209 0
-1464 1463 210 0
-1464 -1463 -210 0
1464 1463 -210 0
1464 -1463 210 0
-1465 1464 238 0
-1465 -1464 -238 0
1465 1464 -238 0
1465 -1464 238 0
-1466 1465 239 0
-1466 -1465 -239 0
1466 1465 -239 0
1466 -1465 239 0
-1467 1466 240 0
-1467 -1466 -240 0
1467 1466 -240 0
1467 -1466 240 0
-1467 0
-1468 11 17 0
-1468 -11 -17 0
1468 11 -17 0
1468 -11 17 0
-1469 1468 20 0
-1469 -1468 -20 0
1469 1468 -20 0
1469 -1468 20 0
-1470 1469 41 0
-1470 -1469 -41 0
1470 1469 -41 0
1470 -1469 41 0
-1471 1470 57 0
-1471 -1470 -57 0
1471 1470 -57 0
1471 -1470 57 0
-1472 1471 58 0
-1472 -1471 -58 0
1472 1471 -58 0
1472 -1471 58 0
-1473 1472 80 0
-1473 -1472 -80 0
1473 1472 -80 0
1473 -1472 80 0
-1474 1473 114 0
-1474 -1473 -114 0
1474 1473 -114 0
1474 -1473 114 0
-1475 1474 115 0
-1475 -1474 -115 0
1475 1474 -115 0
1475 -1474 115 0
-1476 1475 116 0
-1476 -1475 -116 0
1476 1475 -116 0
1476 -1475 116 0
-1477 1476 117 0
-1477 -1476 -117 0
1477 1476 -117 0
1477 -1476 117 0
-1478 1477 118 0
-1478 -1477 -118 0
1478 1477 -118 0
1478 -1477 118 0
-1479 1478 119 0
-1479 -1478 -119 0
1479 1478 -119 0
1479 -1478 119 0
-1480 1479 120 0
-1480 -1479 -120 0
1480 1479 -120 0
1480 -1479 120 0
-1481 1480 121 0
-1481 -1480 -121 0
1481 1480 -121 0
1481 -1480 121 0
-1482 1481 122 0
-1482 -1481 -122 0
1482 1481 -122 0
1482 -1481 122 0
-1483 1482 144 0
-1483 -1482 -144 0
1483 1482 -144 0
1483 -1482 144 0
-1484 1483 145 0
-1484 -1483 -145 0
1484 1483 -145 0
1484 -1483 145 0
-1485 1484 146 0
-1485 -1484 -146 0
1485 1484 -146 0
1485 -1484 146 0
-1486 1485 148 0
-1486 -1485 -148 0
1486 1485 -148 0
1486 -1485 148 0
-1487 1486 149 0
-1487 -1486 -149 0
1487 1486 -149 0
1487 -1486 149 0
-1488 1487 150 0
-1488 -1487 -150 0
1488 1487 -150 0
1488 -1487 150 0
-1489 1488 151 0
-1489 -1488 -151 0
1489 1488 -151 0
1489 -1488 151 0
-1490 1489 164 0
-1490 -1489 -164 0
1490 1489 -164 0
1490 -1489 164 0
-1491 1490 165 0
-1491 -1490 -165 0
1491 1490 -165 0
1491 -1490 165 0
-1492 1491 190 0
-1492 -1491 -190 0
1492 1491 -190 0
1492 -1491 190 0
-1493 1492 213 0
-1493 -1492 -213 0
1493 1492 -213 0
1493 -1492 213 0
-1494 1493 214 0
-1494 -1493 -214 0
1494 1493 -214 0
1494 -1493 214 0
-1495 1494 215 0
-1495 -1494 -215 0
1495 1494 -215 0
1495 -1494 215 0
-1496 1495 243 0
-1496 -1495 -243 0
1496 1495 -243 0
1496 -1495 243 0
-1497 1496 244 0
-1497 -1496 -244 0
1497 1496 -244 0
1497 -1496 244 0
-1498 1497 245 0
-1498 -1497 -245 0
1498 1497 -245 0
1498 -1497 245 0
-1498 0
-1499 12 18 0
-1499 -12 -18 0
1499 12 -18 0
1499 -12 18 0
-1500 1499 21 0
-1500 -1499 -21 0
1500 1499 -21 0
1500 -1499 21 0
-1501 1500 42 0
-1501 -1500 -42 0
1501 1500 -42 0
1501 -1500 42 0
-1502 1501 58 0
-1502 -1501 -58 0
1502 1501 -58 0
1502 -1501 58 0
-1503 1502 59 0
-1503 -1502 -59 0
1503 1502 -59 0
1503 -1502 59 0
-1504 1503 85 0
-1504 -1503 -85 0
1504 1503 -85 0
1504 -1503 85 0
-1505 1504 119 0
-1505 -1504 -119 0
1505 1504 -119 0
1505 -1504 119 0
-1506 1505 120 0
-1506 -1505 -120 0
1506 1505 -120 0
1506 -1505 120 0
-1507 1506 121 0
-1507 -1506 -121 0
1507 1506 -121 0
1507 -1506 121 0
-1508 1507 122 0
-1508 -1507 -122 0
1508 1507 -122 0
1508 -1507 122 0
-1509 1508 124 0
-1509 -1508 -124 0
1509 1508 -124 0
1509 -1508 124 0
-1510 1509 125 0
-1510 -1509 -125 0
1510 1509 -125 0
1510 -1509 125 0
-1511 1510 126 0
-1511 -1510 -126 0
1511 1510 -126 0
1511 -1510 126 0
-1512 1511 127 0
-1512 -1511 -127 0
1512 1511 -127 0
1512 -1511 127 0
-1513 1512 149 0
-1513 -1512 -149 0
1513 1512 -149 0
1513 -1512 149 0
-1514 1513 150 0
-1514 -1513 -150 0
1514 1513 -150 0
1514 -1513 150 0
-1515 1514 151 0
-1515 -1514 -151 0
1515 1514 -151 0
1515 -1514 151 0
-1516 1515 154 0
-1516 -1515 -154 0
1516 1515 -154 0
1516 -1515 154 0
-1517 1516 155 0
-1517 -1516 -155 0
1517 1516 -155 0
1517 -1516 155 0
-1518 1517 156 0
-1518 -1517 -156 0
1518 1517 -156 0
1518 -1517 156 0
-1519 1518 165 0
-1519 -1518 -165 0
1519 1518 -165 0
1519 -1518 165 0
-1520 1519 169 0
-1520 -1519 -169 0
1520 1519 -169 0
1520 -1519 169 0
-1521 1520 170 0
-1521 -1520 -170 0
1521 1520 -170 0
1521 -1520 170 0
-1522 1521 218 0
-1522 -1521 -218 0
1522 1521 -218 0
1522 -1521 218 0
-1523 1522 219 0
-1523 -1522 -219 0
1523 1522 -219 0
1523 -1522 219 0
-1524 1523 220 0
-1524 -1523 -220 0
1524 1523 -220 0
1524 -1523 220 0
-1525 1524 248 0
-1525 -1524 -248 0
1525 1524 -248 0
1525 -1524 248 0
-1526 1525 249 0
-1526 -1525 -249 0
1526 1525 -249 0
1526 -1525 249 0
-1527 1526 250 0
-1527 -1526 -250 0
1527 1526 -250 0
1527 -1526 250 0
-1527 0
-1528 13 19 0
-1528 -13 -19 0
1528 13 -19 0
1528 -13 19 0
-1529 1528 28 0
-1529 -1528 -28 0
1529 1528 -28 0
1529 -1528 28 0
-1530 1529 43 0
-1530 -1529 -43 0
1530 1529 -43 0
1530 -1529 43 0
-1531 1530 65 0
-1531 -1530 -65 0
1531 1530 -65 0
1531 -1530 65 0
-1532 1531 66 0
-1532 -1531 -66 0
1532 1531 -66 0
1532 -1531 66 0
-1533 1532 75 0
-1533 -1532 -75 0
1533 1532 -75 0
1533 -1532 75 0
-1534 1533 76 0
-1534 -1533 -76 0
1534 1533 -76 0
1534 -1533 76 0
-1535 1534 120 0
-1535 -1534 -120 0
1535 1534 -120 0
1535 -1534 120 0
-1536 1535 153 0
-1536 -1535 -153 0
1536 1535 -153 0
1536 -1535 153 0
-1537 1536 154 0
-1537 -1536 -154 0
1537 1536 -154 0
1537 -1536 154 0
-1538 1537 155 0
-1538 -1537 -155 0
1538 1537 -155 0
1538 -1537 155 0
-1539 1538 156 0
-1539 -1538 -156 0
1539 1538 -156 0
1539 -1538 156 0
-1540 1539 157 0
-1540 -1539 -157 0
1540 1539 -157 0
1540 -1539 157 0
-1541 1540 158 0
-1541 -1540 -158 0
1541 1540 -158 0
1541 -1540 158 0
-1542 1541 159 0
-1542 -1541 -159 0
1542 1541 -159 0
1542 -1541 159 0
-1543 1542 160 0
-1543 -1542 -160 0
1543 1542 -160 0
1543 -1542 160 0
-1544 1543 161 0
-1544 -1543 -161 0
1544 1543 -161 0
1544 -1543 161 0
-1545 1544 162 0
-1545 -1544 -162 0
1545 1544 -162 0
1545 -1544 162 0
-1546 1545 184 0
-1546 -1545 -184 0
1546 1545 -184 0
1546 -1545 184 0
-1547 1546 185 0
-1547 -1546 -185 0
1547 1546 -185 0
1547 -1546 185 0
-1548 1547 186 0
-1548 -1547 -186 0
1548 1547 -186 0
1548 -1547 186 0
-1549 1548 189 0
-1549 -1548 -189 0
1549 1548 -189 0
1549 -1548 189 0
-1550 1549 190 0
-1550 -1549 -190 0
1550 1549 -190 0
1550 -1549 190 0
-1551 1550 191 0
-1551 -1550 -191 0
1551 1550 -191 0
1551 -1550 191 0
-1552 1551 200 0
-1552 -1551 -200 0
1552 1551 -200 0
1552 -1551 200 0
-1553 1552 201 0
-1553 -1552 -201 0
1553 1552 -201 0
1553 -1552 201 0
-1554 1553 204 0
-1554 -1553 -204 0
1554 1553 -204 0
1554 -1553 204 0
-1555 1554 205 0
-1555 -1554 -205 0
1555 1554 -205 0
1555 -1554 205 0
-1556 1555 206 0
-1556 -1555 -206 0
1556 1555 -206 0
1556 -1555 206 0
-1557 1556 223 0
-1557 -1556 -223 0
1557 1556 -223 0
1557 -1556 223 0
-1558 1557 224 0
-1558 -1557 -224 0
1558 1557 -224 0
1558 -1557 224 0
-1559 1558 225 0
-1559 -1558 -225 0
1559 1558 -225 0
1559 -1558 225 0
-1560 1559 226 0
-1560 -1559 -226 0
1560 1559 -226 0
1560 -1559 226 0
-1560 0
-1561 14 20 0
-1561 -14 -20 0
1561 14 -20 0
1561 -14 20 0
-1562 1561 29 0
-1562 -1561 -29 0
1562 1561 -29 0
1562 -1561 29 0
-1563 1562 44 0
-1563 -1562 -44 0
1563 1562 -44 0
1563 -1562 44 0
-1564 1563 61 0
-1564 -1563 -61 0
1564 1563 -61 0
1564 -1563 61 0
-1565 1564 66 0
-1565 -1564 -66 0
1565 1564 -66 0
1565 -1564 66 0
-1566 1565 80 0
-1566 -1565 -80 0
1566 1565 -80 0
1566 -1565 80 0
-1567 1566 81 0
-1567 -1566 -81 0
1567 1566 -81 0
1567 -1566 81 0
-1568 1567 125 0
-1568 -1567 -125 0
1568 1567 -125 0
1568 -1567 125 0
-1569 1568 133 0
-1569 -1568 -133 0
1569 1568 -133 0
1569 -1568 133 0
-1570 1569 134 0
-1570 -1569 -134 0
1570 1569 -134 0
1570 -1569 134 0
-1571 1570 135 0
-1571 -1570 -135 0
1571 1570 -135 0
1571 -1570 135 0
-1572 1571 136 0
-1572 -1571 -136 0
1572 1571 -136 0
1572 -1571 136 0
-1573 1572 137 0
-1573 -1572 -137 0
1573 1572 -137 0
1573 -1572 137 0
-1574 1573 159 0
-1574 -1573 -159 0
1574 1573 -159 0
1574 -1573 159 0
-1575 1574 160 0
-1575 -1574 -160 0
1575 1574 -160 0
1575 -1574 160 0
-1576 1575 161 0
-1576 -1575 -161 0
1576 1575 -161 0
1576 -1575 161 0
-1577 1576 162 0
-1577 -1576 -162 0
1577 1576 -162 0
1577 -1576 162 0
-1578 1577 164 0
-1578 -1577 -164 0
1578 1577 -164 0
1578 -1577 164 0
-1579 1578 165 0
-1579 -1578 -165 0
1579 1578 -165 0
1579 -1578 165 0
-1580 1579 166 0
-1580 -1579 -166 0
1580 1579 -166 0
1580 -1579 166 0
-1581 1580 190 0
-1581 -1580 -190 0
1581 1580 -190 0
1581 -1580 190 0
-1582 1581 191 0
-1582 -1581 -191 0
1582 1581 -191 0
1582 -1581 191 0
-1583 1582 205 0
-1583 -1582 -205 0
1583 1582 -205 0
1583 -1582 205 0
-1584 1583 206 0
-1584 -1583 -206 0
1584 1583 -206 0
1584 -1583 206 0
-1585 1584 209 0
-1585 -1584 -209 0
1585 1584 -209 0
1585 -1584 209 0
-1586 1585 210 0
-1586 -1585 -210 0
1586 1585 -210 0
1586 -1585 210 0
-1587 1586 211 0
-1587 -1586 -211 0
1587 1586 -211 0
1587 -1586 211 0
-1588 1587 228 0
-1588 -1587 -228 0
1588 1587 -228 0
1588 -1587 228 0
-1589 1588 229 0
-1589 -1588 -229 0
1589 1588 -229 0
1589 -1588 229 0
-1590 1589 230 0
-1590 -1589 -230 0
1590 1589 -230 0
1590 -1589 230 0
-1591 1590 231 0
-1591 -1590 -231 0
1591 1590 -231 0
1591 -1590 231 0
-1591 0
-1592 15 21 0
-1592 -15 -21 0
1592 15 -21 0
1592 -15 21 0
-1593 1592 30 0
-1593 -1592 -30 0
1593 1592 -30 0
1593 -1592 30 0
-1594 1593 45 0
-1594 -1593 -45 0
1594 1593 -45 0
1594 -1593 45 0
-1595 1594 61 0
-1595 -1594 -61 0
1595 1594 -61 0
1595 -1594 61 0
-1596 1595 62 0
-1596 -1595 -62 0
1596 1595 -62 0
1596 -1595 62 0
-1597 1596 85 0
-1597 -1596 -85 0
1597 1596 -85 0
1597 -1596 85 0
-1598 1597 86 0
-1598 -1597 -86 0
1598 1597 -86 0
1598 -1597 86 0
-1599 1598 130 0
-1599 -1598 -130 0
1599 1598 -130 0
1599 -1598 130 0
-1600 1599 134 0
-1600 -1599 -134 0
1600 1599 -134 0
1600 -1599 134 0
-1601 1600 135 0
-1601 -1600 -135 0
1601 1600 -135 0
1601 -1600 135 0
-1602 1601 136 0
-1602 -1601 -136 0
1602 1601 -136 0
1602 -1601 136 0
-1603 1602 137 0
-1603 -1602 -137 0
1603 1602 -137 0
1603 -1602 137 0
-1604 1603 138 0
-1604 -1603 -138 0
1604 1603 -138 0
1604 -1603 138 0
-1605 1604 139 0
-1605 -1604 -139 0
1605 1604 -139 0
1605 -1604 139 0
-1606 1605 140 0
-1606 -1605 -140 0
1606 1605 -140 0
1606 -1605 140 0
-1607 1606 141 0
-1607 -1606 -141 0
1607 1606 -141 0
1607 -1606 141 0
-1608 1607 142 0
-1608 -1607 -142 0
1608 1607 -142 0
1608 -1607 142 0
-1609 1608 165 0
-1609 -1608 -165 0
1609 1608 -165 0
1609 -1608 165 0
-1610 1609 166 0
-1610 -1609 -166 0
1610 1609 -166 0
1610 -1609 166 0
-1611 1610 169 0
-1611 -1610 -169 0
1611 1610 -169 0
1611 -1610 169 0
-1612 1611 170 0
-1612 -1611 -170 0
1612 1611 -170 0
1612 -1611 170 0
-1613 1612 171 0
-1613 -1612 -171 0
1613 1612 -171 0
1613 -1612 171 0
-1614 1613 210 0
-1614 -1613 -210 0
1614 1613 -210 0
1614 -1613 210 0
-1615 1614 211 0
-1615 -1614 -211 0
1615 1614 -211 0
1615 -1614 211 0
-1616 1615 215 0
-1616 -1615 -215 0
1616 1615 -215 0
1616 -1615 215 0
-1617 1616 216 0
-1617 -1616 -216 0
1617 1616 -216 0
1617 -1616 216 0
-1618 1617 233 0
-1618 -1617 -233 0
1618 1617 -233 0
1618 -1617 233 0
-1619 1618 234 0
-1619 -1618 -234 0
1619 1618 -234 0
1619 -1618 234 0
-1620 1619 235 0
-1620 -1619 -235 0
1620 1619 -235 0
1620 -1619 235 0
-1621 1620 236 0
-1621 -1620 -236 0
1621 1620 -236 0
1621 -1620 236 0
-1621 0
-1622 16 22 0
-1622 -16 -22 0
1622 16 -22 0
1622 -16 22 0
-1623 1622 25 0
-1623 -1622 -25 0
1623 1622 -25 0
1623 -1622 25 0
-1624 1623 46 0
-1624 -1623 -46 0
1624 1623 -46 0
1624 -1623 46 0
-1625 1624 62 0
-1625 -1624 -62 0
1625 1624 -62 0
1625 -1624 62 0
-1626 1625 63 0
-1626 -1625 -63 0
1626 1625 -63 0
1626 -1625 63 0
-1627 1626 90 0
-1627 -1626 -90 0
1627 1626 -90 0
1627 -1626 90 0
-1628 1627 91 0
-1628 -1627 -91 0
1628 1627 -91 0
1628 -1627 91 0
-1629 1628 105 0
-1629 -1628 -105 0
1629 1628 -105 0
1629 -1628 105 0
-1630 1629 139 0
-1630 -1629 -139 0
1630 1629 -139 0
1630 -1629 139 0
-1631 1630 140 0
-1631 -1630 -140 0
1631 1630 -140 0
1631 -1630 140 0
-1632 1631 141 0
-1632 -1631 -141 0
1632 1631 -141 0
1632 -1631 141 0
-1633 1632 142 0
-1633 -1632 -142 0
1633 1632 -142 0
1633 -1632 142 0
-1634 1633 143 0
-1634 -1633 -143 0
1634 1633 -143 0
1634 -1633 143 0
-1635 1634 144 0
-1635 -1634 -144 0
1635 1634 -144 0
1635 -1634 144 0
-1636 1635 145 0
-1636 -1635 -145 0
1636 1635 -145 0
1636 -1635 145 0
-1637 1636 146 0
-1637 -1636 -146 0
1637 1636 -146 0
1637 -1636 146 0
-1638 1637 147 0
-1638 -1637 -147 0
1638 1637 -147 0
1638 -1637 147 0
-1639 1638 170 0
-1639 -1638 -170 0
1639 1638 -170 0
1639 -1638 170 0
-1640 1639 171 0
-1640 -1639 -171 0
1640 1639 -171 0
1640 -1639 171 0
-1641 1640 174 0
-1641 -1640 -174 0
1641 1640 -174 0
1641 -1640 174 0
-1642 1641 175 0
-1642 -1641 -175 0
1642 1641 -175 0
1642 -1641 175 0
-1643 1642 176 0
-1643 -1642 -176 0
1643 1642 -176 0
1643 -1642 176 0
-1644 1643 214 0
-1644 -1643 -214 0
1644 1643 -214 0
1644 -1643 214 0
-1645 1644 215 0
-1645 -1644 -215 0
1645 1644 -215 0
1645 -1644 215 0
-1646 1645 216 0
-1646 -1645 -216 0
1646 1645 -216 0
1646 -1645 216 0
-1647 1646 219 0
-1647 -1646 -219 0
1647 1646 -219 0
1647 -1646 219 0
-1648 1647 220 0
-1648 -1647 -220 0
1648 1647 -220 0
1648 -1647 220 0
-1649 1648 221 0
-1649 -1648 -221 0
1649 1648 -221 0
1649 -1648 221 0
-1650 1649 238 0
-1650 -1649 -238 0
1650 1649 -238 0
1650 -1649 238 0
-1651 1650 239 0
-1651 -1650 -239 0
1651 1650 -239 0
1651 -1650 239 0
-1652 1651 240 0
-1652 -1651 -240 0
1652 1651 -240 0
1652 -1651 240 0
-1653 1652 241 0
-1653 -1652 -241 0
1653 1652 -241 0
1653 -1652 241 0
-1653 0
-1654 17 23 0
-1654 -17 -23 0
1654 17 -23 0
1654 -17 23 0
-1655 1654 26 0
-1655 -1654 -26 0
1655 1654 -26 0
1655 -1654 26 0
-1656 1655 47 0
-1656 -1655 -47 0
1656 1655 -47 0
1656 -1655 47 0
-1657 1656 63 0
-1657 -1656 -63 0
1657 1656 -63 0
1657 -1656 63 0
-1658 1657 64 0
-1658 -1657 -64 0
1658 1657 -64 0
1658 -1657 64 0
-1659 1658 95 0
-1659 -1658 -95 0
1659 1658 -95 0
1659 -1658 95 0
-1660 1659 96 0
-1660 -1659 -96 0
1660 1659 -96 0
1660 -1659 96 0
-1661 1660 110 0
-1661 -1660 -110 0
1661 1660 -110 0
1661 -1660 110 0
-1662 1661 144 0
-1662 -1661 -144 0
1662 1661 -144 0
1662 -1661 144 0
-1663 1662 145 0
-1663 -1662 -145 0
1663 1662 -145 0
1663 -1662 145 0
-1664 1663 146 0
-1664 -1663 -146 0
1664 1663 -146 0
1664 -1663 146 0
-1665 1664 147 0
-1665 -1664 -147 0
1665 1664 -147 0
1665 -1664 147 0
-1666 1665 148 0
-1666 -1665 -148 0
1666 1665 -148 0
1666 -1665 148 0
-1667 1666 149 0
-1667 -1666 -149 0
1667 1666 -149 0
1667 -1666 149 0
-1668 1667 150 0
-1668 -1667 -150 0
1668 1667 -150 0
1668 -1667 150 0
-1669 1668 151 0
-1669 -1668 -151 0
1669 1668 -151 0
1669 -1668 151 0
-1670 1669 152 0
-1670 -1669 -152 0
1670 1669 -152 0
1670 -1669 152 0
-1671 1670 175 0
-1671 -1670 -175 0
1671 1670 -175 0
1671 -1670 175 0
-1672 1671 176 0
-1672 -1671 -176 0
1672 1671 -176 0
1672 -1671 176 0
-1673 1672 179 0
-1673 -1672 -179 0
1673 1672 -179 0
1673 -1672 179 0
-1674 1673 180 0
-1674 -1673 -180 0
1674 1673 -180 0
1674 -1673 180 0
-1675 1674 181 0
-1675 -1674 -181 0
1675 1674 -181 0
1675 -1674 181 0
-1676 1675 194 0
-1676 -1675 -194 0
1676 1675 -194 0
1676 -1675 194 0
-1677 1676 195 0
-1677 -1676 -195 0
1677 1676 -195 0
1677 -1676 195 0
-1678 1677 196 0
-1678 -1677 -196 0
1678 1677 -196 0
1678 -1677 196 0
-1679 1678 220 0
-1679 -1678 -220 0
1679 1678 -220 0
1679 -1678 220 0
-1680 1679 221 0
-1680 -1679 -221 0
1680 1679 -221 0
1680 -1679 221 0
-1681 1680 243 0
-1681 -1680 -243 0
1681 1680 -243 0
1681 -1680 243 0
-1682 1681 244 0
-1682 -1681 -244 0
1682 1681 -244 0
1682 -1681 244 0
-1683 1682 245 0
-1683 -1682 -245 0
1683 1682 -245 0
1683 -1682 245 0
-1684 1683 246 0
-1684 -1683 -246 0
1684 1683 -246 0
1684 -1683 246 0
-1684 0
-1685 18 24 0
-1685 -18 -24 0
1685 18 -24 0
1685 -18 24 0
-1686 1685 27 0
-1686 -1685 -27 0
1686 1685 -27 0
1686 -1685 27 0
-1687 1686 48 0
-1687 -1686 -48 0
1687 1686 -48 0
1687 -1686 48 0
-1688 1687 64 0
-1688 -1687 -64 0
1688 1687 -64 0
1688 -1687 64 0
-1689 1688 65 0
-1689 -1688 -65 0
1689 1688 -65 0
1689 -1688 65 0
-1690 1689 100 0
-1690 -1689 -100 0
1690 1689 -100 0
1690 -1689 100 0
-1691 1690 101 0
-1691 -1690 -101 0
1691 1690 -101 0
1691 -1690 101 0
-1692 1691 115 0
-1692 -1691 -115 0
1692 1691 -115 0
1692 -1691 115 0
-1693 1692 149 0
-1693 -1692 -149 0
1693 1692 -149 0
1693 -1692 149 0
-1694 1693 150 0
-1694 -1693 -150 0
1694 1693 -150 0
1694 -1693 150 0
-1695 1694 151 0
-1695 -1694 -151 0
1695 1694 -151 0
1695 -1694 151 0
-1696 1695 152 0
-1696 -1695 -152 0
1696 1695 -152 0
1696 -1695 152 0
-1697 1696 154 0
-1697 -1696 -154 0
1697 1696 -154 0
1697 -1696 154 0
-1698 1697 155 0
-1698 -1697 -155 0
1698 1697 -155 0
1698 -1697 155 0
-1699 1698 156 0
-1699 -1698 -156 0
1699 1698 -156 0
1699 -1698 156 0
-1700 1699 157 0
-1700 -1699 -157 0
1700 1699 -157 0
1700 -1699 157 0
-1701 1700 180 0
-1701 -1700 -180 0
1701 1700 -180 0
1701 -1700 180 0
-1702 1701 181 0
-1702 -1701 -181 0
1702 1701 -181 0
1702 -1701 181 0
-1703 1702 185 0
-1703 -1702 -185 0
1703 1702 -185 0
1703 -1702 185 0
-1704 1703 186 0
-1704 -1703 -186 0
1704 1703 -186 0
1704 -1703 186 0
-1705 1704 195 0
-1705 -1704 -195 0
1705 1704 -195 0
1705 -1704 195 0
-1706 1705 196 0
-1706 -1705 -196 0
1706 1705 -196 0
1706 -1705 196 0
-1707 1706 199 0
-1707 -1706 -199 0
1707 1706 -199 0
1707 -1706 199 0
-1708 1707 200 0
-1708 -1707 -200 0
1708 1707 -200 0
1708 -1707 200 0
-1709 1708 201 0
-1709 -1708 -201 0
1709 1708 -201 0
1709 -1708 201 0
-1710 1709 248 0
-1710 -1709 -248 0
1710 1709 -248 0
1710 -1709 248 0
-1711 1710 249 0
-1711 -1710 -249 0
1711 1710 -249 0
1711 -1710 249 0
-1712 1711 250 0
-1712 -1711 -250 0
1712 1711 -250 0
1712 -1711 250 0
-1713 1712 251 0
-1713 -1712 -251 0
1713 1712 -251 0
1713 -1712 251 0
-1713 0
-1714 19 25 0
-1714 -19 -25 0
1714 19 -25 0
1714 -19 25 0
-1715 1714 34 0
-1715 -1714 -34 0
1715 1714 -34 0
1715 -1714 34 0
-1716 1715 49 0
-1716 -1715 -49 0
1716 1715 -49 0
1716 -1715 49 0
-1717 1716 71 0
-1717 -1716 -71 0
1717 1716 -71 0
1717 -1716 71 0
-1718 1717 72 0
-1718 -1717 -72 0
1718 1717 -72 0
1718 -1717 72 0
-1719 1718 75 0
-1719 -1718 -75 0
1719 1718 -75 0
1719 -1718 75 0
-1720 1719 76 0
-1720 -1719 -76 0
1720 1719 -76 0
1720 -1719 76 0
-1721 1720 77 0
-1721 -1720 -77 0
1721 1720 -77 0
1721 -1720 77 0
-1722 1721 105 0
-1722 -1721 -105 0
1722 1721 -105 0
1722 -1721 105 0
-1723 1722 106 0
-1723 -1722 -106 0
1723 1722 -106 0
1723 -1722 106 0
-1724 1723 150 0
-1724 -1723 -150 0
1724 1723 -150 0
1724 -1723 150 0
-1725 1724 184 0
-1725 -1724 -184 0
1725 1724 -184 0
1725 -1724 184 0
-1726 1725 185 0
-1726 -1725 -185 0
1726 1725 -185 0
1726 -1725 185 0
-1727 1726 186 0
-1727 -1726 -186 0
1727 1726 -186 0
1727 -1726 186 0
-1728 1727 187 0
-1728 -1727 -187 0
1728 1727 -187 0
1728 -1727 187 0
-1729 1728 189 0
-1729 -1728 -189 0
1729 1728 -189 0
1729 -1728 189 0
-1730 1729 190 0
-1730 -1729 -190 0
1730 1729 -190 0
1730 -1729 190 0
-1731 1730 191 0
-1731 -1730 -191 0
1731 1730 -191 0
1731 -1730 191 0
-1732 1731 192 0
-1732 -1731 -192 0
1732 1731 -192 0
1732 -1731 192 0
-1733 1732 214 0
-1733 -1732 -214 0
1733 1732 -214 0
1733 -1732 214 0
-1734 1733 215 0
-1734 -1733 -215 0
1734 1733 -215 0
1734 -1733 215 0
-1735 1734 216 0
-1735 -1734 -216 0
1735 1734 -216 0
1735 -1734 216 0
-1736 1735 217 0
-1736 -1735 -217 0
1736 1735 -217 0
1736 -1735 217 0
-1737 1736 219 0
-1737 -1736 -219 0
1737 1736 -219 0
1737 -1736 219 0
-1738 1737 220 0
-1738 -1737 -220 0
1738 1737 -220 0
1738 -1737 220 0
-1739 1738 221 0
-1739 -1738 -221 0
1739 1738 -221 0
1739 -1738 221 0
-1740 1739 222 0
-1740 -1739 -222 0
1740 1739 -222 0
1740 -1739 222 0
-1741 1740 230 0
-1741 -1740 -230 0
1741 1740 -230 0
1741 -1740 230 0
-1742 1741 231 0
-1742 -1741 -231 0
1742 1741 -231 0
1742 -1741 231 0
-1743 1742 232 0
-1743 -1742 -232 0
1743 1742 -232 0
1743 -1742 232 0
-1744 1743 234 0
-1744 -1743 -234 0
1744 1743 -234 0
1744 -1743 234 0
-1745 1744 235 0
-1745 -1744 -235 0
1745 1744 -235 0
1745 -1744 235 0
-1746 1745 236 0
-1746 -1745 -236 0
1746 1745 -236 0
1746 -1745 236 0
-1747 1746 237 0
-1747 -1746 -237 0
1747 1746 -237 0
1747 -1746 237 0
-1747 0
-1748 20 26 0
-1748 -20 -26 0
1748 20 -26 0
1748 -20 26 0
-1749 1748 35 0
-1749 -1748 -35 0
1749 1748 -35 0
1749 -1748 35 0
-1750 1749 50 0
-1750 -1749 -50 0
1750 1749 -50 0
1750 -1749 50 0
-1751 1750 67 0
-1751 -1750 -67 0
1751 1750 -67 0
1751 -1750 67 0
-1752 1751 72 0
-1752 -1751 -72 0
1752 1751 -72 0
1752 -1751 72 0
-1753 1752 80 0
-1753 -1752 -80 0
1753 1752 -80 0
1753 -1752 80 0
-1754 1753 81 0
-1754 -1753 -81 0
1754 1753 -81 0
1754 -1753 81 0
-1755 1754 82 0
-1755 -1754 -82 0
1755 1754 -82 0
1755 -1754 82 0
-1756 1755 110 0
-1756 -1755 -110 0
1756 1755 -110 0
1756 -1755 110 0
-1757 1756 111 0
-1757 -1756 -111 0
1757 1756 -111 0
1757 -1756 111 0
-1758 1757 155 0
-1758 -1757 -155 0
1758 1757 -155 0
1758 -1757 155 0
-1759 1758 164 0
-1759 -1758 -164 0
1759 1758 -164 0
1759 -1758 164 0
-1760 1759 165 0
-1760 -1759 -165 0
1760 1759 -165 0
1760 -1759 165 0
-1761 1760 166 0
-1761 -1760 -166 0
1761 1760 -166 0
1761 -1760 166 0
-1762 1761 167 0
-1762 -1761 -167 0
1762 1761 -167 0
1762 -1761 167 0
-1763 1762 190 0
-1763 -1762 -190 0
1763 1762 -190 0
1763 -1762 190 0
-1764 1763 191 0
-1764 -1763 -191 0
1764 1763 -191 0
1764 -1763 191 0
-1765 1764 192 0
-1765 -1764 -192 0
1765 1764 -192 0
1765 -1764 192 0
-1766 1765 194 0
-1766 -1765 -194 0
1766 1765 -194 0
1766 -1765 194 0
-1767 1766 195 0
-1767 -1766 -195 0
1767 1766 -195 0
1767 -1766 195 0
-1768 1767 196 0
-1768 -1767 -196 0
1768 1767 -196 0
1768 -1767 196 0
-1769 1768 197 0
-1769 -1768 -197 0
1769 1768 -197 0
1769 -1768 197 0
-1770 1769 220 0
-1770 -1769 -220 0
1770 1769 -220 0
1770 -1769 220 0
-1771 1770 221 0
-1771 -1770 -221 0
1771 1770 -221 0
1771 -1770 221 0
-1772 1771 222 0
-1772 -1771 -222 0
1772 1771 -222 0
1772 -1771 222 0
-1773 1772 235 0
-1773 -1772 -235 0
1773 1772 -235 0
1773 -1772 235 0
-1774 1773 236 0
-1774 -1773 -236 0
1774 1773 -236 0
1774 -1773 236 0
-1775 1774 237 0
-1775 -1774 -237 0
1775 1774 -237 0
1775 -1774 237 0
-1776 1775 239 0
-1776 -1775 -239 0
1776 1775 -239 0
1776 -1775 239 0
-1777 1776 240 0
-1777 -1776 -240 0
1777 1776 -240 0
1777 -1776 240 0
-1778 1777 241 0
-1778 -1777 -241 0
1778 1777 -241 0
1778 -1777 241 0
-1779 1778 242 0
-1779 -1778 -242 0
1779 1778 -242 0
1779 -1778 242 0
-1779 0
-1780 21 27 0
-1780 -21 -27 0
1780 21 -27 0
1780 -21 27 0
-1781 1780 36 0
-1781 -1780 -36 0
1781 1780 -36 0
1781 -1780 36 0
-1782 1781 51 0
-1782 -1781 -51 0
1782 1781 -51 0
1782 -1781 51 0
-1783 1782 67 0
-1783 -1782 -67 0
1783 1782 -67 0
1783 -1782 67 0
-1784 1783 68 0
-1784 -1783 -68 0
1784 1783 -68 0
1784 -1783 68 0
-1785 1784 85 0
-1785 -1784 -85 0
1785 1784 -85 0
1785 -1784 85 0
-1786 1785 86 0
-1786 -1785 -86 0
1786 1785 -86 0
1786 -1785 86 0
-1787 1786 87 0
-1787 -1786 -87 0
1787 1786 -87 0
1787 -1786 87 0
-1788 1787 115 0
-1788 -1787 -115 0
1788 1787 -115 0
1788 -1787 115 0
-1789 1788 116 0
-1789 -1788 -116 0
1789 1788 -116 0
1789 -1788 116 0
-1790 1789 160 0
-1790 -1789 -160 0
1790 1789 -160 0
1790 -1789 160 0
-1791 1790 165 0
-1791 -1790 -165 0
1791 1790 -165 0
1791 -1790 165 0
-1792 1791 166 0
-1792 -1791 -166 0
1792 1791 -166 0
1792 -1791 166 0
-1793 1792 167 0
-1793 -1792 -167 0
1793 1792 -167 0
1793 -1792 167 0
-1794 1793 169 0
-1794 -1793 -169 0
1794 1793 -169 0
1794 -1793 169 0
-1795 1794 170 0
-1795 -1794 -170 0
1795 1794 -170 0
1795 -1794 170 0
-1796 1795 171 0
-1796 -1795 -171 0
1796 1795 -171 0
1796 -1795 171 0
-1797 1796 172 0
-1797 -1796 -172 0
1797 1796 -172 0
1797 -1796 172 0
-1798 1797 195 0
-1798 -1797 -195 0
1798 1797 -195 0
1798 -1797 195 0
-1799 1798 196 0
-1799 -1798 -196 0
1799 1798 -196 0
1799 -1798 196 0
-1800 1799 197 0
-1800 -1799 -197 0
1800 1799 -197 0
1800 -1799 197 0
-1801 1800 199 0
-1801 -1800 -199 0
1801 1800 -199 0
1801 -1800 199 0
-1802 1801 200 0
-1802 -1801 -200 0
1802 1801 -200 0
1802 -1801 200 0
-1803 1802 201 0
-1803 -1802 -201 0
1803 1802 -201 0
1803 -1802 201 0
-1804 1803 202 0
-1804 -1803 -202 0
1804 1803 -202 0
1804 -1803 202 0
-1805 1804 240 0
-1805 -1804 -240 0
1805 1804 -240 0
1805 -1804 240 0
-1806 1805 241 0
-1806 -1805 -241 0
1806 1805 -241 0
1806 -1805 241 0
-1807 1806 242 0
-1807 -1806 -242 0
1807 1806 -242 0
1807 -1806 242 0
-1808 1807 245 0
-1808 -1807 -245 0
1808 1807 -245 0
1808 -1807 245 0
-1809 1808 246 0
-1809 -1808 -246 0
1809 1808 -246 0
1809 -1808 246 0
-1810 1809 247 0
-1810 -1809 -247 0
1810 1809 -247 0
1810 -1809 247 0
-1810 0
-1811 22 28 0
-1811 -22 -28 0
1811 22 -28 0
1811 -22 28 0
-1812 1811 31 0
-1812 -1811 -31 0
1812 1811 -31 0
1812 -1811 31 0
-1813 1812 52 0
-1813 -1812 -52 0
1813 1812 -52 0
1813 -1812 52 0
-1814 1813 68 0
-1814 -1813 -68 0
1814 1813 -68 0
1814 -1813 68 0
-1815 1814 69 0
-1815 -1814 -69 0
1815 1814 -69 0
1815 -1814 69 0
-1816 1815 90 0
-1816 -1815 -90 0
1816 1815 -90 0
1816 -1815 90 0
-1817 1816 91 0
-1817 -1816 -91 0
1817 1816 -91 0
1817 -1816 91 0
-1818 1817 92 0
-1818 -1817 -92 0
1818 1817 -92 0
1818 -1817 92 0
-1819 1818 120 0
-1819 -1818 -120 0
1819 1818 -120 0
1819 -1818 120 0
-1820 1819 121 0
-1820 -1819 -121 0
1820 1819 -121 0
1820 -1819 121 0
-1821 1820 135 0
-1821 -1820 -135 0
1821 1820 -135 0
1821 -1820 135 0
-1822 1821 170 0
-1822 -1821 -170 0
1822 1821 -170 0
1822 -1821 170 0
-1823 1822 171 0
-1823 -1822 -171 0
1823 1822 -171 0
1823 -1822 171 0
-1824 1823 172 0
-1824 -1823 -172 0
1824 1823 -172 0
1824 -1823 172 0
-1825 1824 174 0
-1825 -1824 -174 0
1825 1824 -174 0
1825 -1824 174 0
-1826 1825 175 0
-1826 -1825 -175 0
1826 1825 -175 0
1826 -1825 175 0
-1827 1826 176 0
-1827 -1826 -176 0
1827 1826 -176 0
1827 -1826 176 0
-1828 1827 177 0
-1828 -1827 -177 0
1828 1827 -177 0
1828 -1827 177 0
-1829 1828 200 0
-1829 -1828 -200 0
1829 1828 -200 0
1829 -1828 200 0
-1830 1829 201 0
-1830 -1829 -201 0
1830 1829 -201 0
1830 -1829 201 0
-1831 1830 202 0
-1831 -1830 -202 0
1831 1830 -202 0
1831 -1830 202 0
-1832 1831 204 0
-1832 -1831 -204 0
1832 1831 -204 0
1832 -1831 204 0
-1833 1832 205 0
-1833 -1832 -205 0
1833 1832 -205 0
1833 -1832 205 0
-1834 1833 206 0
-1834 -1833 -206 0
1834 1833 -206 0
1834 -1833 206 0
-1835 1834 207 0
-1835 -1834 -207 0
1835 1834 -207 0
1835 -1834 207 0
-1836 1835 244 0
-1836 -1835 -244 0
1836 1835 -244 0
1836 -1835 244 0
-1837 1836 245 0
-1837 -1836 -245 0
1837 1836 -245 0
1837 -1836 245 0
-1838 1837 246 0
-1838 -1837 -246 0
1838 1837 -246 0
1838 -1837 246 0
-1839 1838 247 0
-1839 -1838 -247 0
1839 1838 -247 0
1839 -1838 247 0
-1840 1839 249 0
-1840 -1839 -249 0
1840 1839 -249 0
1840 -1839 249 0
-1841 1840 250 0
-1841 -1840 -250 0
1841 1840 -250 0
1841 -1840 250 0
-1842 1841 251 0
-1842 -1841 -251 0
1842 1841 -251 0
1842 -1841 251 0
-1843 1842 252 0
-1843 -1842 -252 0
1843 1842 -252 0
1843 -1842 252 0
-1843 0
-1844 23 29 0
-1844 -23 -29 0
1844 23 -29 0
1844 -23 29 0
-1845 1844 32 0
-1845 -1844 -32 0
1845 1844 -32 0
1845 -1844 32 0
-1846 1845 53 0
-1846 -1845 -53 0
1846 1845 -53 0
1846 -1845 53 0
-1847 1846 69 0
-1847 -1846 -69 0
1847 1846 -69 0
1847 -1846 69 0
-1848 1847 70 0
-1848 -1847 -70 0
1848 1847 -70 0
1848 -1847 70 0
-1849 1848 95 0
-1849 -1848 -95 0
1849 1848 -95 0
1849 -1848 95 0
-1850 1849 96 0
-1850 -1849 -96 0
1850 1849 -96 0
1850 -1849 96 0
-1851 1850 97 0
-1851 -1850 -97 0
1851 1850 -97 0
1851 -1850 97 0
-1852 1851 125 0
-1852 -1851 -125 0
1852 1851 -125 0
1852 -1851 125 0
-1853 1852 126 0
-1853 -1852 -126 0
1853 1852 -126 0
1853 -1852 126 0
-1854 1853 140 0
-1854 -1853 -140 0
1854 1853 -140 0
1854 -1853 140 0
-1855 1854 175 0
-1855 -1854 -175 0
1855 1854 -175 0
1855 -1854 175 0
-1856 1855 176 0
-1856 -1855 -176 0
1856 1855 -176 0
1856 -1855 176 0
-1857 1856 177 0
-1857 -1856 -177 0
1857 1856 -177 0
1857 -1856 177 0
-1858 1857 179 0
-1858 -1857 -179 0
1858 1857 -179 0
1858 -1857 179 0
-1859 1858 180 0
-1859 -1858 -180 0
1859 1858 -180 0
1859 -1858 180 0
-1860 1859 181 0
-1860 -1859 -181 0
1860 1859 -181 0
1860 -1859 181 0
-1861 1860 182 0
-1861 -1860 -182 0
1861 1860 -182 0
1861 -1860 182 0
-1862 1861 205 0
-1862 -1861 -205 0
1862 1861 -205 0
1862 -1861 205 0
-1863 1862 206 0
-1863 -1862 -206 0
1863 1862 -206 0
1863 -1862 206 0
-1864 1863 207 0
-1864 -1863 -207 0
1864 1863 -207 0
1864 -1863 207 0
-1865 1864 209 0
-1865 -1864 -209 0
1865 1864 -209 0
1865 -1864 209 0
-1866 1865 210 0
-1866 -1865 -210 0
1866 1865 -210 0
1866 -1865 210 0
-1867 1866 211 0
-1867 -1866 -211 0
1867 1866 -211 0
1867 -1866 211 0
-1868 1867 212 0
-1868 -1867 -212 0
1868 1867 -212 0
1868 -1867 212 0
-1869 1868 224 0
-1869 -1868 -224 0
1869 1868 -224 0
1869 -1868 224 0
-1870 1869 225 0
-1870 -1869 -225 0
1870 1869 -225 0
1870 -1869 225 0
-1871 1870 226 0
-1871 -1870 -226 0
1871 1870 -226 0
1871 -1870 226 0
-1872 1871 227 0
-1872 -1871 -227 0
1872 1871 -227 0
1872 -1871 227 0
-1873 1872 250 0
-1873 -1872 -250 0
1873 1872 -250 0
1873 -1872 250 0
-1874 1873 251 0
-1874 -1873 -251 0
1874 1873 -251 0
1874 -1873 251 0
-1875 1874 252 0
-1875 -1874 -252 0
1875 1874 -252 0
1875 -1874 252 0
-1875 0
-1876 24 30 0
-1876 -24 -30 0
1876 24 -30 0
1876 -24 30 0
-1877 1876 33 0
-1877 -1876 -33 0
1877 1876 -33 0
1877 -1876 33 0
-1878 1877 54 0
-1878 -1877 -54 0
1878 1877 -54 0
1878 -1877 54 0
-1879 1878 70 0
-1879 -1878 -70 0
1879 1878 -70 0
1879 -1878 70 0
-1880 1879 71 0
-1880 -1879 -71 0
1880 1879 -71 0
1880 -1879 71 0
-1881 1880 100 0
-1881 -1880 -100 0
1881 1880 -100 0
1881 -1880 100 0
-1882 1881 101 0
-1882 -1881 -101 0
1882 1881 -101 0
1882 -1881 101 0
-1883 1882 102 0
-1883 -1882 -102 0
1883 1882 -102 0
1883 -1882 102 0
-1884 1883 130 0
-1884 -1883 -130 0
1884 1883 -130 0
1884 -1883 130 0
-1885 1884 131 0
-1885 -1884 -131 0
1885 1884 -131 0
1885 -1884 131 0
-1886 1885 145 0
-1886 -1885 -145 0
1886 1885 -145 0
1886 -1885 145 0
-1887 1886 180 0
-1887 -1886 -180 0
1887 1886 -180 0
1887 -1886 180 0
-1888 1887 181 0
-1888 -1887 -181 0
1888 1887 -181 0
1888 -1887 181 0
-1889 1888 182 0
-1889 -1888 -182 0
1889 1888 -182 0
1889 -1888 182 0
-1890 1889 185 0
-1890 -1889 -185 0
1890 1889 -185 0
1890 -1889 185 0
-1891 1890 186 0
-1891 -1890 -186 0
1891 1890 -186 0
1891 -1890 186 0
-1892 1891 187 0
-1892 -1891 -187 0
1892 1891 -187 0
1892 -1891 187 0
-1893 1892 210 0
-1893 -1892 -210 0
1893 1892 -210 0
1893 -1892 210 0
-1894 1893 211 0
-1894 -1893 -211 0
1894 1893 -211 0
1894 -1893 211 0
-1895 1894 212 0
-1895 -1894 -212 0
1895 1894 -212 0
1895 -1894 212 0
-1896 1895 215 0
-1896 -1895 -215 0
1896 1895 -215 0
1896 -1895 215 0
-1897 1896 216 0
-1897 -1896 -216 0
1897 1896 -216 0
1897 -1896 216 0
-1898 1897 217 0
-1898 -1897 -217 0
1898 1897 -217 0
1898 -1897 217 0
-1899 1898 225 0
-1899 -1898 -225 0
1899 1898 -225 0
1899 -1898 225 0
-1900 1899 226 0
-1900 -1899 -226 0
1900 1899 -226 0
1900 -1899 226 0
-1901 1900 227 0
-1901 -1900 -227 0
1901 1900 -227 0
1901 -1900 227 0
-1902 1901 229 0
-1902 -1901 -229 0
1902 1901 -229 0
1902 -1901 229 0
-1903 1902 230 0
-1903 -1902 -230 0
1903 1902 -230 0
1903 -1902 230 0
-1904 1903 231 0
-1904 -1903 -231 0
1904 1903 -231 0
1904 -1903 231 0
-1905 1904 232 0
-1905 -1904 -232 0
1905 1904 -232 0
1905 -1904 232 0
-1905 0
-1906 6 7 0
-1906 -6 -7 0
1906 6 -7 0
1906 -6 7 0
-1907 1906 8 0
-1907 -1906 -8 0
1907 1906 -8 0
1907 -1906 8 0
-1908 1907 11 0
-1908 -1907 -11 0
1908 1907 -11 0
1908 -1907 11 0
-1909 1908 12 0
-1909 -1908 -12 0
1909 1908 -12 0
1909 -1908 12 0
-1910 1909 13 0
-1910 -1909 -13 0
1910 1909 -13 0
1910 -1909 13 0
-1911 1910 14 0
-1911 -1910 -14 0
1911 1910 -14 0
1911 -1910 14 0
-1912 1911 17 0
-1912 -1911 -17 0
1912 1911 -17 0
1912 -1911 17 0
-1913 1912 18 0
-1913 -1912 -18 0
1913 1912 -18 0
1913 -1912 18 0
-1914 1913 25 0
-1914 -1913 -25 0
1914 1913 -25 0
1914 -1913 25 0
-1915 1914 31 0
-1915 -1914 -31 0
1915 1914 -31 0
1915 -1914 31 0
-1916 1915 37 0
-1916 -1915 -37 0
1916 1915 -37 0
1916 -1915 37 0
-1917 1916 38 0
-1917 -1916 -38 0
1917 1916 -38 0
1917 -1916 38 0
-1918 1917 57 0
-1918 -1917 -57 0
1918 1917 -57 0
1918 -1917 57 0
-1919 1918 89 0
-1919 -1918 -89 0
1919 1918 -89 0
1919 -1918 89 0
-1920 1919 90 0
-1920 -1919 -90 0
1920 1919 -90 0
1920 -1919 90 0
-1921 1920 94 0
-1921 -1920 -94 0
1921 1920 -94 0
1921 -1920 94 0
-1922 1921 95 0
-1922 -1921 -95 0
1922 1921 -95 0
1922 -1921 95 0
-1923 1922 103 0
-1923 -1922 -103 0
1923 1922 -103 0
1923 -1922 103 0
-1924 1923 104 0
-1924 -1923 -104 0
1924 1923 -104 0
1924 -1923 104 0
-1925 1924 114 0
-1925 -1924 -114 0
1925 1924 -114 0
1925 -1924 114 0
-1926 1925 115 0
-1926 -1925 -115 0
1926 1925 -115 0
1926 -1925 115 0
-1927 1926 116 0
-1927 -1926 -116 0
1927 1926 -116 0
1927 -1926 116 0
-1928 1927 117 0
-1928 -1927 -117 0
1928 1927 -117 0
1928 -1927 117 0
-1929 1928 118 0
-1929 -1928 -118 0
1929 1928 -118 0
1929 -1928 118 0
-1930 1929 123 0
-1930 -1929 -123 0
1930 1929 -123 0
1930 -1929 123 0
-1931 1930 128 0
-1931 -1930 -128 0
1931 1930 -128 0
1931 -1930 128 0
-1932 1931 133 0
-1932 -1931 -133 0
1932 1931 -133 0
1932 -1931 133 0
-1933 1932 134 0
-1933 -1932 -134 0
1933 1932 -134 0
1933 -1932 134 0
-1934 1933 144 0
-1934 -1933 -144 0
1934 1933 -144 0
1934 -1933 144 0
-1935 1934 145 0
-1935 -1934 -145 0
1935 1934 -145 0
1935 -1934 145 0
-1936 1935 146 0
-1936 -1935 -146 0
1936 1935 -146 0
1936 -1935 146 0
-1937 1936 148 0
-1937 -1936 -148 0
1937 1936 -148 0
1937 -1936 148 0
-1938 1937 153 0
-1938 -1937 -153 0
1938 1937 -153 0
1938 -1937 153 0
-1939 1938 158 0
-1939 -1938 -158 0
1939 1938 -158 0
1939 -1938 158 0
-1940 1939 188 0
-1940 -1939 -188 0
1940 1939 -188 0
1940 -1939 188 0
-1941 1940 189 0
-1941 -1940 -189 0
1941 1940 -189 0
1941 -1940 189 0
-1942 1941 190 0
-1942 -1941 -190 0
1942 1941 -190 0
1942 -1941 190 0
-1943 1942 193 0
-1943 -1942 -193 0
1943 1942 -193 0
1943 -1942 193 0
-1944 1943 194 0
-1944 -1943 -194 0
1944 1943 -194 0
1944 -1943 194 0
-1945 1944 195 0
-1945 -1944 -195 0
1945 1944 -195 0
1945 -1944 195 0
-1946 1945 198 0
-1946 -1945 -198 0
1946 1945 -198 0
1946 -1945 198 0
-1947 1946 199 0
-1947 -1946 -199 0
1947 1946 -199 0
1947 -1946 199 0
-1948 1947 200 0
-1948 -1947 -200 0
1948 1947 -200 0
1948 -1947 200 0
-1949 1948 213 0
-1949 -1948 -213 0
1949 1948 -213 0
1949 -1948 213 0
-1950 1949 218 0
-1950 -1949 -218 0
1950 1949 -218 0
1950 -1949 218 0
-1951 1950 223 0
-1951 -1950 -223 0
1951 1950 -223 0
1951 -1950 223 0
-1952 1951 224 0
-1952 -1951 -224 0
1952 1951 -224 0
1952 -1951 224 0
-1953 1952 225 0
-1953 -1952 -225 0
1953 1952 -225 0
1953 -1952 225 0
-1954 1953 228 0
-1954 -1953 -228 0
1954 1953 -228 0
1954 -1953 228 0
-1955 1954 229 0
-1955 -1954 -229 0
1955 1954 -229 0
1955 -1954 229 0
-1956 1955 230 0
-1956 -1955 -230 0
1956 1955 -230 0
1956 -1955 230 0
-1957 1956 243 0
-1957 -1956 -243 0
1957 1956 -243 0
1957 -1956 243 0
-1958 1957 248 0
-1958 -1957 -248 0
1958 1957 -248 0
1958 -1957 248 0
-1959 1 7 0
-1959 -1 -7 0
1959 1 -7 0
1959 -1 7 0
-1960 1959 8 0
-1960 -1959 -8 0
1960 1959 -8 0
1960 -1959 8 0
-1961 1960 9 0
-1961 -1960 -9 0
1961 1960 -9 0
1961 -1960 9 0
-1962 1961 12 0
-1962 -1961 -12 0
1962 1961 -12 0
1962 -1961 12 0
-1963 1962 13 0
-1963 -1962 -13 0
1963 1962 -13 0
1963 -1962 13 0
-1964 1963 14 0
-1964 -1963 -14 0
1964 1963 -14 0
1964 -1963 14 0
-1965 1964 15 0
-1965 -1964 -15 0
1965 1964 -15 0
1965 -1964 15 0
-1966 1965 16 0
-1966 -1965 -16 0
1966 1965 -16 0
1966 -1965 16 0
-1967 1966 17 0
-1967 -1966 -17 0
1967 1966 -17 0
1967 -1966 17 0
-1968 1967 18 0
-1968 -1967 -18 0
1968 1967 -18 0
1968 -1967 18 0
-1969 1968 26 0
-1969 -1968 -26 0
1969 1968 -26 0
1969 -1968 26 0
-1970 1969 31 0
-1970 -1969 -31 0
1970 1969 -31 0
1970 -1969 31 0
-1971 1970 38 0
-1971 -1970 -38 0
1971 1970 -38 0
1971 -1970 38 0
-1972 1971 39 0
-1972 -1971 -39 0
1972 1971 -39 0
1972 -1971 39 0
-1973 1972 40 0
-1973 -1972 -40 0
1973 1972 -40 0
1973 -1972 40 0
-1974 1973 43 0
-1974 -1973 -43 0
1974 1973 -43 0
1974 -1973 43 0
-1975 1974 61 0
-1975 -1974 -61 0
1975 1974 -61 0
1975 -1974 61 0
-1976 1975 76 0
-1976 -1975 -76 0
1976 1975 -76 0
1976 -1975 76 0
-1977 1976 93 0
-1977 -1976 -93 0
1977 1976 -93 0
1977 -1976 93 0
-1978 1977 94 0
-1978 -1977 -94 0
1978 1977 -94 0
1978 -1977 94 0
-1979 1978 95 0
-1979 -1978 -95 0
1979 1978 -95 0
1979 -1978 95 0
-1980 1979 98 0
-1980 -1979 -98 0
1980 1979 -98 0
1980 -1979 98 0
-1981 1980 99 0
-1981 -1980 -99 0
1981 1980 -99 0
1981 -1980 99 0
-1982 1981 100 0
-1982 -1981 -100 0
1982 1981 -100 0
1982 -1981 100 0
-1983 1982 103 0
-1983 -1982 -103 0
1983 1982 -103 0
1983 -1982 103 0
-1984 1983 108 0
-1984 -1983 -108 0
1984 1983 -108 0
1984 -1983 108 0
-1985 1984 109 0
-1985 -1984 -109 0
1985 1984 -109 0
1985 -1984 109 0
-1986 1985 119 0
-1986 -1985 -119 0
1986 1985 -119 0
1986 -1985 119 0
-1987 1986 120 0
-1987 -1986 -120 0
1987 1986 -120 0
1987 -1986 120 0
-1988 1987 123 0
-1988 -1987 -123 0
1988 1987 -123 0
1988 -1987 123 0
-1989 1988 128 0
-1989 -1988 -128 0
1989 1988 -128 0
1989 -1988 128 0
-1990 1989 133 0
-1990 -1989 -133 0
1990 1989 -133 0
1990 -1989 133 0
-1991 1990 135 0
-1991 -1990 -135 0
1991 1990 -135 0
1991 -1990 135 0
-1992 1991 136 0
-1992 -1991 -136 0
1992 1991 -136 0
1992 -1991 136 0
-1993 1992 137 0
-1993 -1992 -137 0
1993 1992 -137 0
1993 -1992 137 0
-1994 1993 138 0
-1994 -1993 -138 0
1994 1993 -138 0
1994 -1993 138 0
-1995 1994 143 0
-1995 -1994 -143 0
1995 1994 -143 0
1995 -1994 143 0
-1996 1995 148 0
-1996 -1995 -148 0
1996 1995 -148 0
1996 -1995 148 0
-1997 1996 153 0
-1997 -1996 -153 0
1997 1996 -153 0
1997 -1996 153 0
-1998 1997 158 0
-1998 -1997 -158 0
1998 1997 -158 0
1998 -1997 158 0
-1999 1998 163 0
-1999 -1998 -163 0
1999 1998 -163 0
1999 -1998 163 0
-2000 1999 164 0
-2000 -1999 -164 0
2000 1999 -164 0
2000 -1999 164 0
-2001 2000 165 0
-2001 -2000 -165 0
2001 2000 -165 0
2001 -2000 165 0
-2002 2001 166 0
-2002 -2001 -166 0
2002 2001 -166 0
2002 -2001 166 0
-2003 2002 193 0
-2003 -2002 -193 0
2003 2002 -193 0
2003 -2002 193 0
-2004 2003 198 0
-2004 -2003 -198 0
2004 2003 -198 0
2004 -2003 198 0
-2005 2004 199 0
-2005 -2004 -199 0
2005 2004 -199 0
2005 -2004 199 0
-2006 2005 200 0
-2006 -2005 -200 0
2006 2005 -200 0
2006 -2005 200 0
-2007 2006 203 0
-2007 -2006 -203 0
2007 2006 -203 0
2007 -2006 203 0
-2008 2007 204 0
-2008 -2007 -204 0
2008 2007 -204 0
2008 -2007 204 0
-2009 2008 205 0
-2009 -2008 -205 0
2009 2008 -205 0
2009 -2008 205 0
-2010 2009 211 0
-2010 -2009 -211 0
2010 2009 -211 0
2010 -2009 211 0
-2011 2010 218 0
-2011 -2010 -218 0
2011 2010 -218 0
2011 -2010 218 0
-2012 2011 219 0
-2012 -2011 -219 0
2012 2011 -219 0
2012 -2011 219 0
-2013 2012 223 0
-2013 -2012 -223 0
2013 2012 -223 0
2013 -2012 223 0
-2014 2013 224 0
-2014 -2013 -224 0
2014 2013 -224 0
2014 -2013 224 0
-2015 2014 225 0
-2015 -2014 -225 0
2015 2014 -225 0
2015 -2014 225 0
-2016 2015 226 0
-2016 -2015 -226 0
2016 2015 -226 0
2016 -2015 226 0
-2017 2016 228 0
-2017 -2016 -228 0
2017 2016 -228 0
2017 -2016 228 0
-2018 2017 229 0
-2018 -2017 -229 0
2018 2017 -229 0
2018 -2017 229 0
-2019 2018 230 0
-2019 -2018 -230 0
2019 2018 -230 0
2019 -2018 230 0
-2020 2019 233 0
-2020 -2019 -233 0
2020 2019 -233 0
2020 -2019 233 0
-2021 2020 234 0
-2021 -2020 -234 0
2021 2020 -234 0
2021 -2020 234 0
-2022 2021 235 0
-2022 -2021 -235 0
2022 2021 -235 0
2022 -2021 235 0
-2023 2022 238 0
-2023 -2022 -238 0
2023 2022 -238 0
2023 -2022 238 0
-2024 2023 239 0
-2024 -2023 -239 0
2024 2023 -239 0
2024 -2023 239 0
-2025 2024 240 0
-2025 -2024 -240 0
2025 2024 -240 0
2025 -2024 240 0
-2026 2025 243 0
-2026 -2025 -243 0
2026 2025 -243 0
2026 -2025 243 0
-2027 2026 248 0
-2027 -2026 -248 0
2027 2026 -248 0
2027 -2026 248 0
-2028 1 2 0
-2028 -1 -2 0
2028 1 -2 0
2028 -1 2 0
-2029 2028 6 0
-2029 -2028 -6 0
2029 2028 -6 0
2029 -2028 6 0
-2030 2029 10 0
-2030 -2029 -10 0
2030 2029 -10 0
2030 -2029 10 0
-2031 2030 11 0
-2031 -2030 -11 0
2031 2030 -11 0
2031 -2030 11 0
-2032 2031 12 0
-2032 -2031 -12 0
2032 2031 -12 0
2032 -2031 12 0
-2033 2032 13 0
-2033 -2032 -13 0
2033 2032 -13 0
2033 -2032 13 0
-2034 2033 14 0
-2034 -2033 -14 0
2034 2033 -14 0
2034 -2033 14 0
-2035 2034 16 0
-2035 -2034 -16 0
2035 2034 -16 0
2035 -2034 16 0
-2036 2035 17 0
-2036 -2035 -17 0
2036 2035 -17 0
2036 -2035 17 0
-2037 2036 18 0
-2037 -2036 -18 0
2037 2036 -18 0
2037 -2036 18 0
-2038 2037 20 0
-2038 -2037 -20 0
2038 2037 -20 0
2038 -2037 20 0
-2039 2038 26 0
-2039 -2038 -26 0
2039 2038 -26 0
2039 -2038 26 0
-2040 2039 31 0
-2040 -2039 -31 0
2040 2039 -31 0
2040 -2039 31 0
-2041 2040 37 0
-2041 -2040 -37 0
2041 2040 -37 0
2041 -2040 37 0
-2042 2041 40 0
-2042 -2041 -40 0
2042 2041 -40 0
2042 -2041 40 0
-2043 2042 44 0
-2043 -2042 -44 0
2043 2042 -44 0
2043 -2042 44 0
-2044 2043 62 0
-2044 -2043 -62 0
2044 2043 -62 0
2044 -2043 62 0
-2045 2044 73 0
-2045 -2044 -73 0
2045 2044 -73 0
2045 -2044 73 0
-2046 2045 74 0
-2046 -2045 -74 0
2046 2045 -74 0
2046 -2045 74 0
-2047 2046 75 0
-2047 -2046 -75 0
2047 2046 -75 0
2047 -2046 75 0
-2048 2047 80 0
-2048 -2047 -80 0
2048 2047 -80 0
2048 -2047 80 0
-2049 2048 81 0
-2049 -2048 -81 0
2049 2048 -81 0
2049 -2048 81 0
-2050 2049 89 0
-2050 -2049 -89 0
2050 2049 -89 0
2050 -2049 89 0
-2051 2050 90 0
-2051 -2050 -90 0
2051 2050 -90 0
2051 -2050 90 0
-2052 2051 93 0
-2052 -2051 -93 0
2052 2051 -93 0
2052 -2051 93 0
-2053 2052 98 0
-2053 -2052 -98 0
2053 2052 -98 0
2053 -2052 98 0
-2054 2053 109 0
-2054 -2053 -109 0
2054 2053 -109 0
2054 -2053 109 0
-2055 2054 113 0
-2055 -2054 -113 0
2055 2054 -113 0
2055 -2054 113 0
-2056 2055 118 0
-2056 -2055 -118 0
2056 2055 -118 0
2056 -2055 118 0
-2057 2056 124 0
-2057 -2056 -124 0
2057 2056 -124 0
2057 -2056 124 0
-2058 2057 125 0
-2058 -2057 -125 0
2058 2057 -125 0
2058 -2057 125 0
-2059 2058 133 0
-2059 -2058 -133 0
2059 2058 -133 0
2059 -2058 133 0
-2060 2059 134 0
-2060 -2059 -134 0
2060 2059 -134 0
2060 -2059 134 0
-2061 2060 139 0
-2061 -2060 -139 0
2061 2060 -139 0
2061 -2060 139 0
-2062 2061 140 0
-2062 -2061 -140 0
2062 2061 -140 0
2062 -2061 140 0
-2063 2062 141 0
-2063 -2062 -141 0
2063 2062 -141 0
2063 -2062 141 0
-2064 2063 142 0
-2064 -2063 -142 0
2064 2063 -142 0
2064 -2063 142 0
-2065 2064 143 0
-2065 -2064 -143 0
2065 2064 -143 0
2065 -2064 143 0
-2066 2065 148 0
-2066 -2065 -148 0
2066 2065 -148 0
2066 -2065 148 0
-2067 2066 153 0
-2067 -2066 -153 0
2067 2066 -153 0
2067 -2066 153 0
-2068 2067 158 0
-2068 -2067 -158 0
2068 2067 -158 0
2068 -2067 158 0
-2069 2068 163 0
-2069 -2068 -163 0
2069 2068 -163 0
2069 -2068 163 0
-2070 2069 168 0
-2070 -2069 -168 0
2070 2069 -168 0
2070 -2069 168 0
-2071 2070 169 0
-2071 -2070 -169 0
2071 2070 -169 0
2071 -2070 169 0
-2072 2071 170 0
-2072 -2071 -170 0
2072 2071 -170 0
2072 -2071 170 0
-2073 2072 171 0
-2073 -2072 -171 0
2073 2072 -171 0
2073 -2072 171 0
-2074 2073 188 0
-2074 -2073 -188 0
2074 2073 -188 0
2074 -2073 188 0
-2075 2074 189 0
-2075 -2074 -189 0
2075 2074 -189 0
2075 -2074 189 0
-2076 2075 194 0
-2076 -2075 -194 0
2076 2075 -194 0
2076 -2075 194 0
-2077 2076 195 0
-2077 -2076 -195 0
2077 2076 -195 0
2077 -2076 195 0
-2078 2077 208 0
-2078 -2077 -208 0
2078 2077 -208 0
2078 -2077 208 0
-2079 2078 209 0
-2079 -2078 -209 0
2079 2078 -209 0
2079 -2078 209 0
-2080 2079 210 0
-2080 -2079 -210 0
2080 2079 -210 0
2080 -2079 210 0
-2081 2080 213 0
-2081 -2080 -213 0
2081 2080 -213 0
2081 -2080 213 0
-2082 2081 214 0
-2082 -2081 -214 0
2082 2081 -214 0
2082 -2081 214 0
-2083 2082 215 0
-2083 -2082 -215 0
2083 2082 -215 0
2083 -2082 215 0
-2084 2083 216 0
-2084 -2083 -216 0
2084 2083 -216 0
2084 -2083 216 0
-2085 2084 218 0
-2085 -2084 -218 0
2085 2084 -218 0
2085 -2084 218 0
-2086 2085 219 0
-2086 -2085 -219 0
2086 2085 -219 0
2086 -2085 219 0
-2087 2086 223 0
-2087 -2086 -223 0
2087 2086 -223 0
2087 -2086 223 0
-2088 2087 224 0
-2088 -2087 -224 0
2088 2087 -224 0
2088 -2087 224 0
-2089 2088 225 0
-2089 -2088 -225 0
2089 2088 -225 0
2089 -2088 225 0
-2090 2089 228 0
-2090 -2089 -228 0
2090 2089 -228 0
2090 -2089 228 0
-2091 2090 229 0
-2091 -2090 -229 0
2091 2090 -229 0
2091 -2090 229 0
-2092 2091 230 0
-2092 -2091 -230 0
2092 2091 -230 0
2092 -2091 230 0
-2093 2092 231 0
-2093 -2092 -231 0
2093 2092 -231 0
2093 -2092 231 0
-2094 2093 238 0
-2094 -2093 -238 0
2094 2093 -238 0
2094 -2093 238 0
-2095 2094 239 0
-2095 -2094 -239 0
2095 2094 -239 0
2095 -2094 239 0
-2096 2095 240 0
-2096 -2095 -240 0
2096 2095 -240 0
2096 -2095 240 0
-2097 2096 243 0
-2097 -2096 -243 0
2097 2096 -243 0
2097 -2096 243 0
-2098 2097 248 0
-2098 -2097 -248 0
2098 2097 -248 0
2098 -2097 248 0
-2099 3 12 0
-2099 -3 -12 0
2099 3 -12 0
2099 -3 12 0
-2100 2099 13 0
-2100 -2099 -13 0
2100 2099 -13 0
2100 -2099 13 0
-2101 2100 14 0
-2101 -2100 -14 0
2101 2100 -14 0
2101 -2100 14 0
-2102 2101 17 0
-2102 -2101 -17 0
2102 2101 -17 0
2102 -2101 17 0
-2103 2102 18 0
-2103 -2102 -18 0
2103 2102 -18 0
2103 -2102 18 0
-2104 2103 31 0
-2104 -2103 -31 0
2104 2103 -31 0
2104 -2103 31 0
-2105 2104 43 0
-2105 -2104 -43 0
2105 2104 -43 0
2105 -2104 43 0
-2106 2105 44 0
-2106 -2105 -44 0
2106 2105 -44 0
2106 -2105 44 0
-2107 2106 63 0
-2107 -2106 -63 0
2107 2106 -63 0
2107 -2106 63 0
-2108 2107 74 0
-2108 -2107 -74 0
2108 2107 -74 0
2108 -2107 74 0
-2109 2108 75 0
-2109 -2108 -75 0
2109 2108 -75 0
2109 -2108 75 0
-2110 2109 76 0
-2110 -2109 -76 0
2110 2109 -76 0
2110 -2109 76 0
-2111 2110 78 0
-2111 -2110 -78 0
2111 2110 -78 0
2111 -2110 78 0
-2112 2111 79 0
-2112 -2111 -79 0
2112 2111 -79 0
2112 -2111 79 0
-2113 2112 80 0
-2113 -2112 -80 0
2113 2112 -80 0
2113 -2112 80 0
-2114 2113 81 0
-2114 -2113 -81 0
2114 2113 -81 0
2114 -2113 81 0
-2115 2114 119 0
-2115 -2114 -119 0
2115 2114 -119 0
2115 -2114 119 0
-2116 2115 120 0
-2116 -2115 -120 0
2116 2115 -120 0
2116 -2115 120 0
-2117 2116 124 0
-2117 -2116 -124 0
2117 2116 -124 0
2117 -2116 124 0
-2118 2117 125 0
-2118 -2117 -125 0
2118 2117 -125 0
2118 -2117 125 0
-2119 2118 133 0
-2119 -2118 -133 0
2119 2118 -133 0
2119 -2118 133 0
-2120 2119 134 0
-2120 -2119 -134 0
2120 2119 -134 0
2120 -2119 134 0
-2121 2120 144 0
-2121 -2120 -144 0
2121 2120 -144 0
2121 -2120 144 0
-2122 2121 145 0
-2122 -2121 -145 0
2122 2121 -145 0
2122 -2121 145 0
-2123 2122 146 0
-2123 -2122 -146 0
2123 2122 -146 0
2123 -2122 146 0
-2124 2123 147 0
-2124 -2123 -147 0
2124 2123 -147 0
2124 -2123 147 0
-2125 2124 148 0
-2125 -2124 -148 0
2125 2124 -148 0
2125 -2124 148 0
-2126 2125 153 0
-2126 -2125 -153 0
2126 2125 -153 0
2126 -2125 153 0
-2127 2126 158 0
-2127 -2126 -158 0
2127 2126 -158 0
2127 -2126 158 0
-2128 2127 173 0
-2128 -2127 -173 0
2128 2127 -173 0
2128 -2127 173 0
-2129 2128 174 0
-2129 -2128 -174 0
2129 2128 -174 0
2129 -2128 174 0
-2130 2129 175 0
-2130 -2129 -175 0
2130 2129 -175 0
2130 -2129 175 0
-2131 2130 176 0
-2131 -2130 -176 0
2131 2130 -176 0
2131 -2130 176 0
-2132 2131 218 0
-2132 -2131 -218 0
2132 2131 -218 0
2132 -2131 218 0
-2133 2132 219 0
-2133 -2132 -219 0
2133 2132 -219 0
2133 -2132 219 0
-2134 2133 220 0
-2134 -2133 -220 0
2134 2133 -220 0
2134 -2133 220 0
-2135 2134 221 0
-2135 -2134 -221 0
2135 2134 -221 0
2135 -2134 221 0
-2136 2135 223 0
-2136 -2135 -223 0
2136 2135 -223 0
2136 -2135 223 0
-2137 2136 224 0
-2137 -2136 -224 0
2137 2136 -224 0
2137 -2136 224 0
-2138 2137 225 0
-2138 -2137 -225 0
2138 2137 -225 0
2138 -2137 225 0
-2139 2138 226 0
-2139 -2138 -226 0
2139 2138 -226 0
2139 -2138 226 0
-2140 2139 228 0
-2140 -2139 -228 0
2140 2139 -228 0
2140 -2139 228 0
-2141 2140 229 0
-2141 -2140 -229 0
2141 2140 -229 0
2141 -2140 229 0
-2142 2141 230 0
-2142 -2141 -230 0
2142 2141 -230 0
2142 -2141 230 0
-2143 2142 231 0
-2143 -2142 -231 0
2143 2142 -231 0
2143 -2142 231 0
-2144 2143 243 0
-2144 -2143 -243 0
2144 2143 -243 0
2144 -2143 243 0
-2145 2144 248 0
-2145 -2144 -248 0
2145 2144 -248 0
2145 -2144 248 0
-2146 1 4 0
-2146 -1 -4 0
2146 1 -4 0
2146 -1 4 0
-2147 2146 5 0
-2147 -2146 -5 0
2147 2146 -5 0
2147 -2146 5 0
-2148 2147 7 0
-2148 -2147 -7 0
2148 2147 -7 0
2148 -2147 7 0
-2149 2148 8 0
-2149 -2148 -8 0
2149 2148 -8 0
2149 -2148 8 0
-2150 2149 9 0
-2150 -2149 -9 0
2150 2149 -9 0
2150 -2149 9 0
-2151 2150 12 0
-2151 -2150 -12 0
2151 2150 -12 0
2151 -2150 12 0
-2152 2151 13 0
-2152 -2151 -13 0
2152 2151 -13 0
2152 -2151 13 0
-2153 2152 14 0
-2153 -2152 -14 0
2153 2152 -14 0
2153 -2152 14 0
-2154 2153 15 0
-2154 -2153 -15 0
2154 2153 -15 0
2154 -2153 15 0
-2155 2154 18 0
-2155 -2154 -18 0
2155 2154 -18 0
2155 -2154 18 0
-2156 2155 19 0
-2156 -2155 -19 0
2156 2155 -19 0
2156 -2155 19 0
-2157 2156 20 0
-2157 -2156 -20 0
2157 2156 -20 0
2157 -2156 20 0
-2158 2157 26 0
-2158 -2157 -26 0
2158 2157 -26 0
2158 -2157 26 0
-2159 2158 32 0
-2159 -2158 -32 0
2159 2158 -32 0
2159 -2158 32 0
-2160 2159 37 0
-2160 -2159 -37 0
2160 2159 -37 0
2160 -2159 37 0
-2161 2160 38 0
-2161 -2160 -38 0
2161 2160 -38 0
2161 -2160 38 0
-2162 2161 39 0
-2162 -2161 -39 0
2162 2161 -39 0
2162 -2161 39 0
-2163 2162 43 0
-2163 -2162 -43 0
2163 2162 -43 0
2163 -2162 43 0
-2164 2163 64 0
-2164 -2163 -64 0
2164 2163 -64 0
2164 -2163 64 0
-2165 2164 75 0
-2165 -2164 -75 0
2165 2164 -75 0
2165 -2164 75 0
-2166 2165 76 0
-2166 -2165 -76 0
2166 2165 -76 0
2166 -2165 76 0
-2167 2166 79 0
-2167 -2166 -79 0
2167 2166 -79 0
2167 -2166 79 0
-2168 2167 83 0
-2168 -2167 -83 0
2168 2167 -83 0
2168 -2167 83 0
-2169 2168 88 0
-2169 -2168 -88 0
2169 2168 -88 0
2169 -2168 88 0
-2170 2169 89 0
-2170 -2169 -89 0
2170 2169 -89 0
2170 -2169 89 0
-2171 2170 90 0
-2171 -2170 -90 0
2171 2170 -90 0
2171 -2170 90 0
-2172 2171 93 0
-2172 -2171 -93 0
2172 2171 -93 0
2172 -2171 93 0
-2173 2172 94 0
-2173 -2172 -94 0
2173 2172 -94 0
2173 -2172 94 0
-2174 2173 95 0
-2174 -2173 -95 0
2174 2173 -95 0
2174 -2173 95 0
-2175 2174 98 0
-2175 -2174 -98 0
2175 2174 -98 0
2175 -2174 98 0
-2176 2175 99 0
-2176 -2175 -99 0
2176 2175 -99 0
2176 -2175 99 0
-2177 2176 100 0
-2177 -2176 -100 0
2177 2176 -100 0
2177 -2176 100 0
-2178 2177 103 0
-2178 -2177 -103 0
2178 2177 -103 0
2178 -2177 103 0
-2179 2178 108 0
-2179 -2178 -108 0
2179 2178 -108 0
2179 -2178 108 0
-2180 2179 109 0
-2180 -2179 -109 0
2180 2179 -109 0
2180 -2179 109 0
-2181 2180 119 0
-2181 -2180 -119 0
2181 2180 -119 0
2181 -2180 119 0
-2182 2181 120 0
-2182 -2181 -120 0
2182 2181 -120 0
2182 -2181 120 0
-2183 2182 123 0
-2183 -2182 -123 0
2183 2182 -123 0
2183 -2182 123 0
-2184 2183 128 0
-2184 -2183 -128 0
2184 2183 -128 0
2184 -2183 128 0
-2185 2184 133 0
-2185 -2184 -133 0
2185 2184 -133 0
2185 -2184 133 0
-2186 2185 138 0
-2186 -2185 -138 0
2186 2185 -138 0
2186 -2185 138 0
-2187 2186 139 0
-2187 -2186 -139 0
2187 2186 -139 0
2187 -2186 139 0
-2188 2187 149 0
-2188 -2187 -149 0
2188 2187 -149 0
2188 -2187 149 0
-2189 2188 150 0
-2189 -2188 -150 0
2189 2188 -150 0
2189 -2188 150 0
-2190 2189 151 0
-2190 -2189 -151 0
2190 2189 -151 0
2190 -2189 151 0
-2191 2190 152 0
-2191 -2190 -152 0
2191 2190 -152 0
2191 -2190 152 0
-2192 2191 153 0
-2192 -2191 -153 0
2192 2191 -153 0
2192 -2191 153 0
-2193 2192 158 0
-2193 -2192 -158 0
2193 2192 -158 0
2193 -2192 158 0
-2194 2193 163 0
-2194 -2193 -163 0
2194 2193 -163 0
2194 -2193 163 0
-2195 2194 178 0
-2195 -2194 -178 0
2195 2194 -178 0
2195 -2194 178 0
-2196 2195 179 0
-2196 -2195 -179 0
2196 2195 -179 0
2196 -2195 179 0
-2197 2196 180 0
-2197 -2196 -180 0
2197 2196 -180 0
2197 -2196 180 0
-2198 2197 181 0
-2198 -2197 -181 0
2198 2197 -181 0
2198 -2197 181 0
-2199 2198 183 0
-2199 -2198 -183 0
2199 2198 -183 0
2199 -2198 183 0
-2200 2199 189 0
-2200 -2199 -189 0
2200 2199 -189 0
2200 -2199 189 0
-2201 2200 193 0
-2201 -2200 -193 0
2201 2200 -193 0
2201 -2200 193 0
-2202 2201 196 0
-2202 -2201 -196 0
2202 2201 -196 0
2202 -2201 196 0
-2203 2202 198 0
-2203 -2202 -198 0
2203 2202 -198 0
2203 -2202 198 0
-2204 2203 199 0
-2204 -2203 -199 0
2204 2203 -199 0
2204 -2203 199 0
-2205 2204 200 0
-2205 -2204 -200 0
2205 2204 -200 0
2205 -2204 200 0
-2206 2205 203 0
-2206 -2205 -203 0
2206 2205 -203 0
2206 -2205 203 0
-2207 2206 204 0
-2207 -2206 -204 0
2207 2206 -204 0
2207 -2206 204 0
-2208 2207 205 0
-2208 -2207 -205 0
2208 2207 -205 0
2208 -2207 205 0
-2209 2208 218 0
-2209 -2208 -218 0
2209 2208 -218 0
2209 -2208 218 0
-2210 2209 219 0
-2210 -2209 -219 0
2210 2209 -219 0
2210 -2209 219 0
-2211 2210 223 0
-2211 -2210 -223 0
2211 2210 -223 0
2211 -2210 223 0
-2212 2211 226 0
-2212 -2211 -226 0
2212 2211 -226 0
2212 -2211 226 0
-2213 2212 228 0
-2213 -2212 -228 0
2213 2212 -228 0
2213 -2212 228 0
-2214 2213 229 0
-2214 -2213 -229 0
2214 2213 -229 0
2214 -2213 229 0
-2215 2214 230 0
-2215 -2214 -230 0
2215 2214 -230 0
2215 -2214 230 0
-2216 2215 233 0
-2216 -2215 -233 0
2216 2215 -233 0
2216 -2215 233 0
-2217 2216 234 0
-2217 -2216 -234 0
2217 2216 -234 0
2217 -2216 234 0
-2218 2217 235 0
-2218 -2217 -235 0
2218 2217 -235 0
2218 -2217 235 0
-2219 2218 248 0
-2219 -2218 -248 0
2219 2218 -248 0
2219 -2218 248 0
-2220 2219 249 0
-2220 -2219 -249 0
2220 2219 -249 0
2220 -2219 249 0
-2221 1 9 0
-2221 -1 -9 0
2221 1 -9 0
2221 -1 9 0
-2222 2221 10 0
-2222 -2221 -10 0
2222 2221 -10 0
2222 -2221 10 0
-2223 2222 11 0
-2223 -2222 -11 0
2223 2222 -11 0
2223 -2222 11 0
-2224 2223 12 0
-2224 -2223 -12 0
2224 2223 -12 0
2224 -2223 12 0
-2225 2224 15 0
-2225 -2224 -15 0
2225 2224 -15 0
2225 -2224 15 0
-2226 2225 16 0
-2226 -2225 -16 0
2226 2225 -16 0
2226 -2225 16 0
-2227 2226 17 0
-2227 -2226 -17 0
2227 2226 -17 0
2227 -2226 17 0
-2228 2227 18 0
-2228 -2227 -18 0
2228 2227 -18 0
2228 -2227 18 0
-2229 2228 19 0
-2229 -2228 -19 0
2229 2228 -19 0
2229 -2228 19 0
-2230 2229 20 0
-2230 -2229 -20 0
2230 2229 -20 0
2230 -2229 20 0
-2231 2230 25 0
-2231 -2230 -25 0
2231 2230 -25 0
2231 -2230 25 0
-2232 2231 31 0
-2232 -2231 -31 0
2232 2231 -31 0
2232 -2231 31 0
-2233 2232 38 0
-2233 -2232 -38 0
2233 2232 -38 0
2233 -2232 38 0
-2234 2233 39 0
-2234 -2233 -39 0
2234 2233 -39 0
2234 -2233 39 0
-2235 2234 40 0
-2235 -2234 -40 0
2235 2234 -40 0
2235 -2234 40 0
-2236 2235 44 0
-2236 -2235 -44 0
2236 2235 -44 0
2236 -2235 44 0
-2237 2236 65 0
-2237 -2236 -65 0
2237 2236 -65 0
2237 -2236 65 0
-2238 2237 75 0
-2238 -2237 -75 0
2238 2237 -75 0
2238 -2237 75 0
-2239 2238 80 0
-2239 -2238 -80 0
2239 2238 -80 0
2239 -2238 80 0
-2240 2239 81 0
-2240 -2239 -81 0
2240 2239 -81 0
2240 -2239 81 0
-2241 2240 93 0
-2241 -2240 -93 0
2241 2240 -93 0
2241 -2240 93 0
-2242 2241 94 0
-2242 -2241 -94 0
2242 2241 -94 0
2242 -2241 94 0
-2243 2242 95 0
-2243 -2242 -95 0
2243 2242 -95 0
2243 -2242 95 0
-2244 2243 98 0
-2244 -2243 -98 0
2244 2243 -98 0
2244 -2243 98 0
-2245 2244 99 0
-2245 -2244 -99 0
2245 2244 -99 0
2245 -2244 99 0
-2246 2245 100 0
-2246 -2245 -100 0
2246 2245 -100 0
2246 -2245 100 0
-2247 2246 104 0
-2247 -2246 -104 0
2247 2246 -104 0
2247 -2246 104 0
-2248 2247 108 0
-2248 -2247 -108 0
2248 2247 -108 0
2248 -2247 108 0
-2249 2248 113 0
-2249 -2248 -113 0
2249 2248 -113 0
2249 -2248 113 0
-2250 2249 118 0
-2250 -2249 -118 0
2250 2249 -118 0
2250 -2249 118 0
-2251 2250 124 0
-2251 -2250 -124 0
2251 2250 -124 0
2251 -2250 124 0
-2252 2251 125 0
-2252 -2251 -125 0
2252 2251 -125 0
2252 -2251 125 0
-2253 2252 134 0
-2253 -2252 -134 0
2253 2252 -134 0
2253 -2252 134 0
-2254 2253 138 0
-2254 -2253 -138 0
2254 2253 -138 0
2254 -2253 138 0
-2255 2254 143 0
-2255 -2254 -143 0
2255 2254 -143 0
2255 -2254 143 0
-2256 2255 148 0
-2256 -2255 -148 0
2256 2255 -148 0
2256 -2255 148 0
-2257 2256 154 0
-2257 -2256 -154 0
2257 2256 -154 0
2257 -2256 154 0
-2258 2257 155 0
-2258 -2257 -155 0
2258 2257 -155 0
2258 -2257 155 0
-2259 2258 156 0
-2259 -2258 -156 0
2259 2258 -156 0
2259 -2258 156 0
-2260 2259 157 0
-2260 -2259 -157 0
2260 2259 -157 0
2260 -2259 157 0
-2261 2260 163 0
-2261 -2260 -163 0
2261 2260 -163 0
2261 -2260 163 0
-2262 2261 184 0
-2262 -2261 -184 0
2262 2261 -184 0
2262 -2261 184 0
-2263 2262 185 0
-2263 -2262 -185 0
2263 2262 -185 0
2263 -2262 185 0
-2264 2263 186 0
-2264 -2263 -186 0
2264 2263 -186 0
2264 -2263 186 0
-2265 2264 189 0
-2265 -2264 -189 0
2265 2264 -189 0
2265 -2264 189 0
-2266 2265 201 0
-2266 -2265 -201 0
2266 2265 -201 0
2266 -2265 201 0
-2267 2266 203 0
-2267 -2266 -203 0
2267 2266 -203 0
2267 -2266 203 0
-2268 2267 204 0
-2268 -2267 -204 0
2268 2267 -204 0
2268 -2267 204 0
-2269 2268 205 0
-2269 -2268 -205 0
2269 2268 -205 0
2269 -2268 205 0
-2270 2269 208 0
-2270 -2269 -208 0
2270 2269 -208 0
2270 -2269 208 0
-2271 2270 209 0
-2271 -2270 -209 0
2271 2270 -209 0
2271 -2270 209 0
-2272 2271 210 0
-2272 -2271 -210 0
2272 2271 -210 0
2272 -2271 210 0
-2273 2272 213 0
-2273 -2272 -213 0
2273 2272 -213 0
2273 -2272 213 0
-2274 2273 218 0
-2274 -2273 -218 0
2274 2273 -218 0
2274 -2273 218 0
-2275 2274 231 0
-2275 -2274 -231 0
2275 2274 -231 0
2275 -2274 231 0
-2276 2275 233 0
-2276 -2275 -233 0
2276 2275 -233 0
2276 -2275 233 0
-2277 2276 234 0
-2277 -2276 -234 0
2277 2276 -234 0
2277 -2276 234 0
-2278 2277 235 0
-2278 -2277 -235 0
2278 2277 -235 0
2278 -2277 235 0
-2279 2278 238 0
-2279 -2278 -238 0
2279 2278 -238 0
2279 -2278 238 0
-2280 2279 239 0
-2280 -2279 -239 0
2280 2279 -239 0
2280 -2279 239 0
-2281 2280 240 0
-2281 -2280 -240 0
2281 2280 -240 0
2281 -2280 240 0
-2282 2281 243 0
-2282 -2281 -243 0
2282 2281 -243 0
2282 -2281 243 0
-2283 2282 248 0
-2283 -2282 -248 0
2283 2282 -248 0
2283 -2282 248 0
-2284 1 7 0
-2284 -1 -7 0
2284 1 -7 0
2284 -1 7 0
-2285 2284 8 0
-2285 -2284 -8 0
2285 2284 -8 0
2285 -2284 8 0
-2286 2285 10 0
-2286 -2285 -10 0
2286 2285 -10 0
2286 -2285 10 0
-2287 2286 11 0
-2287 -2286 -11 0
2287 2286 -11 0
2287 -2286 11 0
-2288 2287 13 0
-2288 -2287 -13 0
2288 2287 -13 0
2288 -2287 13 0
-2289 2288 15 0
-2289 -2288 -15 0
2289 2288 -15 0
2289 -2288 15 0
-2290 2289 16 0
-2290 -2289 -16 0
2290 2289 -16 0
2290 -2289 16 0
-2291 2290 17 0
-2291 -2290 -17 0
2291 2290 -17 0
2291 -2290 17 0
-2292 2291 18 0
-2292 -2291 -18 0
2292 2291 -18 0
2292 -2291 18 0
-2293 2292 20 0
-2293 -2292 -20 0
2293 2292 -20 0
2293 -2292 20 0
-2294 2293 25 0
-2294 -2293 -25 0
2294 2293 -25 0
2294 -2293 25 0
-2295 2294 26 0
-2295 -2294 -26 0
2295 2294 -26 0
2295 -2294 26 0
-2296 2295 31 0
-2296 -2295 -31 0
2296 2295 -31 0
2296 -2295 31 0
-2297 2296 38 0
-2297 -2296 -38 0
2297 2296 -38 0
2297 -2296 38 0
-2298 2297 39 0
-2298 -2297 -39 0
2298 2297 -39 0
2298 -2297 39 0
-2299 2298 40 0
-2299 -2298 -40 0
2299 2298 -40 0
2299 -2298 40 0
-2300 2299 43 0
-2300 -2299 -43 0
2300 2299 -43 0
2300 -2299 43 0
-2301 2300 44 0
-2301 -2300 -44 0
2301 2300 -44 0
2301 -2300 44 0
-2302 2301 66 0
-2302 -2301 -66 0
2302 2301 -66 0
2302 -2301 66 0
-2303 2302 76 0
-2303 -2302 -76 0
2303 2302 -76 0
2303 -2302 76 0
-2304 2303 80 0
-2304 -2303 -80 0
2304 2303 -80 0
2304 -2303 80 0
-2305 2304 81 0
-2305 -2304 -81 0
2305 2304 -81 0
2305 -2304 81 0
-2306 2305 93 0
-2306 -2305 -93 0
2306 2305 -93 0
2306 -2305 93 0
-2307 2306 94 0
-2307 -2306 -94 0
2307 2306 -94 0
2307 -2306 94 0
-2308 2307 95 0
-2308 -2307 -95 0
2308 2307 -95 0
2308 -2307 95 0
-2309 2308 98 0
-2309 -2308 -98 0
2309 2308 -98 0
2309 -2308 98 0
-2310 2309 99 0
-2310 -2309 -99 0
2310 2309 -99 0
2310 -2309 99 0
-2311 2310 100 0
-2311 -2310 -100 0
2311 2310 -100 0
2311 -2310 100 0
-2312 2311 103 0
-2312 -2311 -103 0
2312 2311 -103 0
2312 -2311 103 0
-2313 2312 104 0
-2313 -2312 -104 0
2313 2312 -104 0
2313 -2312 104 0
-2314 2313 109 0
-2314 -2313 -109 0
2314 2313 -109 0
2314 -2313 109 0
-2315 2314 113 0
-2315 -2314 -113 0
2315 2314 -113 0
2315 -2314 113 0
-2316 2315 118 0
-2316 -2315 -118 0
2316 2315 -118 0
2316 -2315 118 0
-2317 2316 119 0
-2317 -2316 -119 0
2317 2316 -119 0
2317 -2316 119 0
-2318 2317 120 0
-2318 -2317 -120 0
2318 2317 -120 0
2318 -2317 120 0
-2319 2318 123 0
-2319 -2318 -123 0
2319 2318 -123 0
2319 -2318 123 0
-2320 2319 124 0
-2320 -2319 -124 0
2320 2319 -124 0
2320 -2319 124 0
-2321 2320 125 0
-2321 -2320 -125 0
2321 2320 -125 0
2321 -2320 125 0
-2322 2321 128 0
-2322 -2321 -128 0
2322 2321 -128 0
2322 -2321 128 0
-2323 2322 134 0
-2323 -2322 -134 0
2323 2322 -134 0
2323 -2322 134 0
-2324 2323 138 0
-2324 -2323 -138 0
2324 2323 -138 0
2324 -2323 138 0
-2325 2324 143 0
-2325 -2324 -143 0
2325 2324 -143 0
2325 -2324 143 0
-2326 2325 148 0
-2326 -2325 -148 0
2326 2325 -148 0
2326 -2325 148 0
-2327 2326 153 0
-2327 -2326 -153 0
2327 2326 -153 0
2327 -2326 153 0
-2328 2327 158 0
-2328 -2327 -158 0
2328 2327 -158 0
2328 -2327 158 0
-2329 2328 159 0
-2329 -2328 -159 0
2329 2328 -159 0
2329 -2328 159 0
-2330 2329 160 0
-2330 -2329 -160 0
2330 2329 -160 0
2330 -2329 160 0
-2331 2330 161 0
-2331 -2330 -161 0
2331 2330 -161 0
2331 -2330 161 0
-2332 2331 162 0
-2332 -2331 -162 0
2332 2331 -162 0
2332 -2331 162 0
-2333 2332 163 0
-2333 -2332 -163 0
2333 2332 -163 0
2333 -2332 163 0
-2334 2333 190 0
-2334 -2333 -190 0
2334 2333 -190 0
2334 -2333 190 0
-2335 2334 191 0
-2335 -2334 -191 0
2335 2334 -191 0
2335 -2334 191 0
-2336 2335 193 0
-2336 -2335 -193 0
2336 2335 -193 0
2336 -2335 193 0
-2337 2336 198 0
-2337 -2336 -198 0
2337 2336 -198 0
2337 -2336 198 0
-2338 2337 199 0
-2338 -2337 -199 0
2338 2337 -199 0
2338 -2337 199 0
-2339 2338 200 0
-2339 -2338 -200 0
2339 2338 -200 0
2339 -2338 200 0
-2340 2339 206 0
-2340 -2339 -206 0
2340 2339 -206 0
2340 -2339 206 0
-2341 2340 208 0
-2341 -2340 -208 0
2341 2340 -208 0
2341 -2340 208 0
-2342 2341 209 0
-2342 -2341 -209 0
2342 2341 -209 0
2342 -2341 209 0
-2343 2342 210 0
-2343 -2342 -210 0
2343 2342 -210 0
2343 -2342 210 0
-2344 2343 213 0
-2344 -2343 -213 0
2344 2343 -213 0
2344 -2343 213 0
-2345 2344 219 0
-2345 -2344 -219 0
2345 2344 -219 0
2345 -2344 219 0
-2346 2345 223 0
-2346 -2345 -223 0
2346 2345 -223 0
2346 -2345 223 0
-2347 2346 224 0
-2347 -2346 -224 0
2347 2346 -224 0
2347 -2346 224 0
-2348 2347 225 0
-2348 -2347 -225 0
2348 2347 -225 0
2348 -2347 225 0
-2349 2348 226 0
-2349 -2348 -226 0
2349 2348 -226 0
2349 -2348 226 0
-2350 2349 231 0
-2350 -2349 -231 0
2350 2349 -231 0
2350 -2349 231 0
-2351 2350 233 0
-2351 -2350 -233 0
2351 2350 -233 0
2351 -2350 233 0
-2352 2351 234 0
-2352 -2351 -234 0
2352 2351 -234 0
2352 -2351 234 0
-2353 2352 235 0
-2353 -2352 -235 0
2353 2352 -235 0
2353 -2352 235 0
-2354 2353 238 0
-2354 -2353 -238 0
2354 2353 -238 0
2354 -2353 238 0
-2355 2354 239 0
-2355 -2354 -239 0
2355 2354 -239 0
2355 -2354 239 0
-2356 2355 240 0
-2356 -2355 -240 0
2356 2355 -240 0
2356 -2355 240 0
-2357 2356 243 0
-2357 -2356 -243 0
2357 2356 -243 0
2357 -2356 243 0
-2358 2357 248 0
-2358 -2357 -248 0
2358 2357 -248 0
2358 -2357 248 0
-2359 2 7 0
-2359 -2 -7 0
2359 2 -7 0
2359 -2 7 0
-2360 2359 8 0
-2360 -2359 -8 0
2360 2359 -8 0
2360 -2359 8 0
-2361 2360 9 0
-2361 -2360 -9 0
2361 2360 -9 0
2361 -2360 9 0
-2362 2361 12 0
-2362 -2361 -12 0
2362 2361 -12 0
2362 -2361 12 0
-2363 2362 15 0
-2363 -2362 -15 0
2363 2362 -15 0
2363 -2362 15 0
-2364 2363 26 0
-2364 -2363 -26 0
2364 2363 -26 0
2364 -2363 26 0
-2365 2364 31 0
-2365 -2364 -31 0
2365 2364 -31 0
2365 -2364 31 0
-2366 2365 32 0
-2366 -2365 -32 0
2366 2365 -32 0
2366 -2365 32 0
-2367 2366 39 0
-2367 -2366 -39 0
2367 2366 -39 0
2367 -2366 39 0
-2368 2367 43 0
-2368 -2367 -43 0
2368 2367 -43 0
2368 -2367 43 0
-2369 2368 68 0
-2369 -2368 -68 0
2369 2368 -68 0
2369 -2368 68 0
-2370 2369 73 0
-2370 -2369 -73 0
2370 2369 -73 0
2370 -2369 73 0
-2371 2370 74 0
-2371 -2370 -74 0
2371 2370 -74 0
2371 -2370 74 0
-2372 2371 75 0
-2372 -2371 -75 0
2372 2371 -75 0
2372 -2371 75 0
-2373 2372 76 0
-2373 -2372 -76 0
2373 2372 -76 0
2373 -2372 76 0
-2374 2373 99 0
-2374 -2373 -99 0
2374 2373 -99 0
2374 -2373 99 0
-2375 2374 100 0
-2375 -2374 -100 0
2375 2374 -100 0
2375 -2374 100 0
-2376 2375 103 0
-2376 -2375 -103 0
2376 2375 -103 0
2376 -2375 103 0
-2377 2376 108 0
-2377 -2376 -108 0
2377 2376 -108 0
2377 -2376 108 0
-2378 2377 109 0
-2378 -2377 -109 0
2378 2377 -109 0
2378 -2377 109 0
-2379 2378 119 0
-2379 -2378 -119 0
2379 2378 -119 0
2379 -2378 119 0
-2380 2379 120 0
-2380 -2379 -120 0
2380 2379 -120 0
2380 -2379 120 0
-2381 2380 123 0
-2381 -2380 -123 0
2381 2380 -123 0
2381 -2380 123 0
-2382 2381 128 0
-2382 -2381 -128 0
2382 2381 -128 0
2382 -2381 128 0
-2383 2382 134 0
-2383 -2382 -134 0
2383 2382 -134 0
2383 -2382 134 0
-2384 2383 138 0
-2384 -2383 -138 0
2384 2383 -138 0
2384 -2383 138 0
-2385 2384 139 0
-2385 -2384 -139 0
2385 2384 -139 0
2385 -2384 139 0
-2386 2385 168 0
-2386 -2385 -168 0
2386 2385 -168 0
2386 -2385 168 0
-2387 2386 169 0
-2387 -2386 -169 0
2387 2386 -169 0
2387 -2386 169 0
-2388 2387 170 0
-2388 -2387 -170 0
2388 2387 -170 0
2388 -2387 170 0
-2389 2388 171 0
-2389 -2388 -171 0
2389 2388 -171 0
2389 -2388 171 0
-2390 2389 172 0
-2390 -2389 -172 0
2390 2389 -172 0
2390 -2389 172 0
-2391 2390 193 0
-2391 -2390 -193 0
2391 2390 -193 0
2391 -2390 193 0
-2392 2391 198 0
-2392 -2391 -198 0
2392 2391 -198 0
2392 -2391 198 0
-2393 2392 199 0
-2393 -2392 -199 0
2393 2392 -199 0
2393 -2392 199 0
-2394 2393 200 0
-2394 -2393 -200 0
2394 2393 -200 0
2394 -2393 200 0
-2395 2394 201 0
-2395 -2394 -201 0
2395 2394 -201 0
2395 -2394 201 0
-2396 2395 202 0
-2396 -2395 -202 0
2396 2395 -202 0
2396 -2395 202 0
-2397 2396 203 0
-2397 -2396 -203 0
2397 2396 -203 0
2397 -2396 203 0
-2398 2397 204 0
-2398 -2397 -204 0
2398 2397 -204 0
2398 -2397 204 0
-2399 2398 205 0
-2399 -2398 -205 0
2399 2398 -205 0
2399 -2398 205 0
-2400 2399 218 0
-2400 -2399 -218 0
2400 2399 -218 0
2400 -2399 218 0
-2401 2400 219 0
-2401 -2400 -219 0
2401 2400 -219 0
2401 -2400 219 0
-2402 2401 224 0
-2402 -2401 -224 0
2402 2401 -224 0
2402 -2401 224 0
-2403 2402 225 0
-2403 -2402 -225 0
2403 2402 -225 0
2403 -2402 225 0
-2404 2403 226 0
-2404 -2403 -226 0
2404 2403 -226 0
2404 -2403 226 0
-2405 2404 233 0
-2405 -2404 -233 0
2405 2404 -233 0
2405 -2404 233 0
-2406 2405 234 0
-2406 -2405 -234 0
2406 2405 -234 0
2406 -2405 234 0
-2407 2406 235 0
-2407 -2406 -235 0
2407 2406 -235 0
2407 -2406 235 0
-2408 2407 244 0
-2408 -2407 -244 0
2408 2407 -244 0
2408 -2407 244 0
-2409 2408 245 0
-2409 -2408 -245 0
2409 2408 -245 0
2409 -2408 245 0
-2410 2409 246 0
-2410 -2409 -246 0
2410 2409 -246 0
2410 -2409 246 0
-2411 2410 247 0
-2411 -2410 -247 0
2411 2410 -247 0
2411 -2410 247 0
-2412 2411 249 0
-2412 -2411 -249 0
2412 2411 -249 0
2412 -2411 249 0
-2413 3 9 0
-2413 -3 -9 0
2413 3 -9 0
2413 -3 9 0
-2414 2413 10 0
-2414 -2413 -10 0
2414 2413 -10 0
2414 -2413 10 0
-2415 2414 11 0
-2415 -2414 -11 0
2415 2414 -11 0
2415 -2414 11 0
-2416 2415 12 0
-2416 -2415 -12 0
2416 2415 -12 0
2416 -2415 12 0
-2417 2416 13 0
-2417 -2416 -13 0
2417 2416 -13 0
2417 -2416 13 0
-2418 2417 14 0
-2418 -2417 -14 0
2418 2417 -14 0
2418 -2417 14 0
-2419 2418 16 0
-2419 -2418 -16 0
2419 2418 -16 0
2419 -2418 16 0
-2420 2419 17 0
-2420 -2419 -17 0
2420 2419 -17 0
2420 -2419 17 0
-2421 2420 18 0
-2421 -2420 -18 0
2421 2420 -18 0
2421 -2420 18 0
-2422 2421 25 0
-2422 -2421 -25 0
2422 2421 -25 0
2422 -2421 25 0
-2423 2422 31 0
-2423 -2422 -31 0
2423 2422 -31 0
2423 -2422 31 0
-2424 2423 32 0
-2424 -2423 -32 0
2424 2423 -32 0
2424 -2423 32 0
-2425 2424 40 0
-2425 -2424 -40 0
2425 2424 -40 0
2425 -2424 40 0
-2426 2425 44 0
-2426 -2425 -44 0
2426 2425 -44 0
2426 -2425 44 0
-2427 2426 69 0
-2427 -2426 -69 0
2427 2426 -69 0
2427 -2426 69 0
-2428 2427 74 0
-2428 -2427 -74 0
2428 2427 -74 0
2428 -2427 74 0
-2429 2428 75 0
-2429 -2428 -75 0
2429 2428 -75 0
2429 -2428 75 0
-2430 2429 78 0
-2430 -2429 -78 0
2430 2429 -78 0
2430 -2429 78 0
-2431 2430 79 0
-2431 -2430 -79 0
2431 2430 -79 0
2431 -2430 79 0
-2432 2431 80 0
-2432 -2431 -80 0
2432 2431 -80 0
2432 -2431 80 0
-2433 2432 81 0
-2433 -2432 -81 0
2433 2432 -81 0
2433 -2432 81 0
-2434 2433 104 0
-2434 -2433 -104 0
2434 2433 -104 0
2434 -2433 104 0
-2435 2434 108 0
-2435 -2434 -108 0
2435 2434 -108 0
2435 -2434 108 0
-2436 2435 113 0
-2436 -2435 -113 0
2436 2435 -113 0
2436 -2435 113 0
-2437 2436 118 0
-2437 -2436 -118 0
2437 2436 -118 0
2437 -2436 118 0
-2438 2437 124 0
-2438 -2437 -124 0
2438 2437 -124 0
2438 -2437 124 0
-2439 2438 125 0
-2439 -2438 -125 0
2439 2438 -125 0
2439 -2438 125 0
-2440 2439 133 0
-2440 -2439 -133 0
2440 2439 -133 0
2440 -2439 133 0
-2441 2440 134 0
-2441 -2440 -134 0
2441 2440 -134 0
2441 -2440 134 0
-2442 2441 139 0
-2442 -2441 -139 0
2442 2441 -139 0
2442 -2441 139 0
-2443 2442 143 0
-2443 -2442 -143 0
2443 2442 -143 0
2443 -2442 143 0
-2444 2443 148 0
-2444 -2443 -148 0
2444 2443 -148 0
2444 -2443 148 0
-2445 2444 153 0
-2445 -2444 -153 0
2445 2444 -153 0
2445 -2444 153 0
-2446 2445 158 0
-2446 -2445 -158 0
2446 2445 -158 0
2446 -2445 158 0
-2447 2446 173 0
-2447 -2446 -173 0
2447 2446 -173 0
2447 -2446 173 0
-2448 2447 174 0
-2448 -2447 -174 0
2448 2447 -174 0
2448 -2447 174 0
-2449 2448 175 0
-2449 -2448 -175 0
2449 2448 -175 0
2449 -2448 175 0
-2450 2449 176 0
-2450 -2449 -176 0
2450 2449 -176 0
2450 -2449 176 0
-2451 2450 177 0
-2451 -2450 -177 0
2451 2450 -177 0
2451 -2450 177 0
-2452 2451 203 0
-2452 -2451 -203 0
2452 2451 -203 0
2452 -2451 203 0
-2453 2452 204 0
-2453 -2452 -204 0
2453 2452 -204 0
2453 -2452 204 0
-2454 2453 205 0
-2454 -2453 -205 0
2454 2453 -205 0
2454 -2453 205 0
-2455 2454 206 0
-2455 -2454 -206 0
2455 2454 -206 0
2455 -2454 206 0
-2456 2455 207 0
-2456 -2455 -207 0
2456 2455 -207 0
2456 -2455 207 0
-2457 2456 208 0
-2457 -2456 -208 0
2457 2456 -208 0
2457 -2456 208 0
-2458 2457 209 0
-2458 -2457 -209 0
2458 2457 -209 0
2458 -2457 209 0
-2459 2458 210 0
-2459 -2458 -210 0
2459 2458 -210 0
2459 -2458 210 0
-2460 2459 213 0
-2460 -2459 -213 0
2460 2459 -213 0
2460 -2459 213 0
-2461 2460 218 0
-2461 -2460 -218 0
2461 2460 -218 0
2461 -2460 218 0
-2462 2461 223 0
-2462 -2461 -223 0
2462 2461 -223 0
2462 -2461 223 0
-2463 2462 228 0
-2463 -2462 -228 0
2463 2462 -228 0
2463 -2462 228 0
-2464 2463 229 0
-2464 -2463 -229 0
2464 2463 -229 0
2464 -2463 229 0
-2465 2464 230 0
-2465 -2464 -230 0
2465 2464 -230 0
2465 -2464 230 0
-2466 2465 231 0
-2466 -2465 -231 0
2466 2465 -231 0
2466 -2465 231 0
-2467 2466 238 0
-2467 -2466 -238 0
2467 2466 -238 0
2467 -2466 238 0
-2468 2467 239 0
-2468 -2467 -239 0
2468 2467 -239 0
2468 -2467 239 0
-2469 2468 240 0
-2469 -2468 -240 0
2469 2468 -240 0
2469 -2468 240 0
-2470 2469 243 0
-2470 -2469 -243 0
2470 2469 -243 0
2470 -2469 243 0
-2471 2470 248 0
-2471 -2470 -248 0
2471 2470 -248 0
2471 -2470 248 0
-2472 2471 250 0
-2472 -2471 -250 0
2472 2471 -250 0
2472 -2471 250 0
-2473 2472 251 0
-2473 -2472 -251 0
2473 2472 -251 0
2473 -2472 251 0
-2474 2473 252 0
-2474 -2473 -252 0
2474 2473 -252 0
2474 -2473 252 0
-2475 4 5 0
-2475 -4 -5 0
2475 4 -5 0
2475 -4 5 0
-2476 2475 6 0
-2476 -2475 -6 0
2476 2475 -6 0
2476 -2475 6 0
-2477 2476 7 0
-2477 -2476 -7 0
2477 2476 -7 0
2477 -2476 7 0
-2478 2477 8 0
-2478 -2477 -8 0
2478 2477 -8 0
2478 -2477 8 0
-2479 2478 10 0
-2479 -2478 -10 0
2479 2478 -10 0
2479 -2478 10 0
-2480 2479 11 0
-2480 -2479 -11 0
2480 2479 -11 0
2480 -2479 11 0
-2481 2480 19 0
-2481 -2480 -19 0
2481 2480 -19 0
2481 -2480 19 0
-2482 2481 25 0
-2482 -2481 -25 0
2482 2481 -25 0
2482 -2481 25 0
-2483 2482 26 0
-2483 -2482 -26 0
2483 2482 -26 0
2483 -2482 26 0
-2484 2483 38 0
-2484 -2483 -38 0
2484 2483 -38 0
2484 -2483 38 0
-2485 2484 43 0
-2485 -2484 -43 0
2485 2484 -43 0
2485 -2484 43 0
-2486 2485 44 0
-2486 -2485 -44 0
2486 2485 -44 0
2486 -2485 44 0
-2487 2486 70 0
-2487 -2486 -70 0
2487 2486 -70 0
2487 -2486 70 0
-2488 2487 75 0
-2488 -2487 -75 0
2488 2487 -75 0
2488 -2487 75 0
-2489 2488 76 0
-2489 -2488 -76 0
2489 2488 -76 0
2489 -2488 76 0
-2490 2489 79 0
-2490 -2489 -79 0
2490 2489 -79 0
2490 -2489 79 0
-2491 2490 80 0
-2491 -2490 -80 0
2491 2490 -80 0
2491 -2490 80 0
-2492 2491 81 0
-2492 -2491 -81 0
2492 2491 -81 0
2492 -2491 81 0
-2493 2492 83 0
-2493 -2492 -83 0
2493 2492 -83 0
2493 -2492 83 0
-2494 2493 88 0
-2494 -2493 -88 0
2494 2493 -88 0
2494 -2493 88 0
-2495 2494 94 0
-2495 -2494 -94 0
2495 2494 -94 0
2495 -2494 94 0
-2496 2495 95 0
-2496 -2495 -95 0
2496 2495 -95 0
2496 -2495 95 0
-2497 2496 103 0
-2497 -2496 -103 0
2497 2496 -103 0
2497 -2496 103 0
-2498 2497 104 0
-2498 -2497 -104 0
2498 2497 -104 0
2498 -2497 104 0
-2499 2498 109 0
-2499 -2498 -109 0
2499 2498 -109 0
2499 -2498 109 0
-2500 2499 113 0
-2500 -2499 -113 0
2500 2499 -113 0
2500 -2499 113 0
-2501 2500 118 0
-2501 -2500 -118 0
2501 2500 -118 0
2501 -2500 118 0
-2502 2501 119 0
-2502 -2501 -119 0
2502 2501 -119 0
2502 -2501 119 0
-2503 2502 120 0
-2503 -2502 -120 0
2503 2502 -120 0
2503 -2502 120 0
-2504 2503 123 0
-2504 -2503 -123 0
2504 2503 -123 0
2504 -2503 123 0
-2505 2504 124 0
-2505 -2504 -124 0
2505 2504 -124 0
2505 -2504 124 0
-2506 2505 125 0
-2506 -2505 -125 0
2506 2505 -125 0
2506 -2505 125 0
-2507 2506 128 0
-2507 -2506 -128 0
2507 2506 -128 0
2507 -2506 128 0
-2508 2507 178 0
-2508 -2507 -178 0
2508 2507 -178 0
2508 -2507 178 0
-2509 2508 179 0
-2509 -2508 -179 0
2509 2508 -179 0
2509 -2508 179 0
-2510 2509 180 0
-2510 -2509 -180 0
2510 2509 -180 0
2510 -2509 180 0
-2511 2510 181 0
-2511 -2510 -181 0
2511 2510 -181 0
2511 -2510 181 0
-2512 2511 182 0
-2512 -2511 -182 0
2512 2511 -182 0
2512 -2511 182 0
-2513 2512 183 0
-2513 -2512 -183 0
2513 2512 -183 0
2513 -2512 183 0
-2514 2513 188 0
-2514 -2513 -188 0
2514 2513 -188 0
2514 -2513 188 0
-2515 2514 193 0
-2515 -2514 -193 0
2515 2514 -193 0
2515 -2514 193 0
-2516 2515 198 0
-2516 -2515 -198 0
2516 2515 -198 0
2516 -2515 198 0
-2517 2516 199 0
-2517 -2516 -199 0
2517 2516 -199 0
2517 -2516 199 0
-2518 2517 200 0
-2518 -2517 -200 0
2518 2517 -200 0
2518 -2517 200 0
-2519 2518 208 0
-2519 -2518 -208 0
2519 2518 -208 0
2519 -2518 208 0
-2520 2519 209 0
-2520 -2519 -209 0
2520 2519 -209 0
2520 -2519 209 0
-2521 2520 210 0
-2521 -2520 -210 0
2521 2520 -210 0
2521 -2520 210 0
-2522 2521 211 0
-2522 -2521 -211 0
2522 2521 -211 0
2522 -2521 211 0
-2523 2522 212 0
-2523 -2522 -212 0
2523 2522 -212 0
2523 -2522 212 0
-2524 2523 213 0
-2524 -2523 -213 0
2524 2523 -213 0
2524 -2523 213 0
-2525 2524 219 0
-2525 -2524 -219 0
2525 2524 -219 0
2525 -2524 219 0
-2526 2525 227 0
-2526 -2525 -227 0
2526 2525 -227 0
2526 -2525 227 0
-2527 2526 231 0
-2527 -2526 -231 0
2527 2526 -231 0
2527 -2526 231 0
-2528 6 7 0
-2528 -6 -7 0
2528 6 -7 0
2528 -6 7 0
-2529 2528 8 0
-2529 -2528 -8 0
2529 2528 -8 0
2529 -2528 8 0
-2530 2529 12 0
-2530 -2529 -12 0
2530 2529 -12 0
2530 -2529 12 0
-2531 2530 19 0
-2531 -2530 -19 0
2531 2530 -19 0
2531 -2530 19 0
-2532 2531 25 0
-2532 -2531 -25 0
2532 2531 -25 0
2532 -2531 25 0
-2533 2532 37 0
-2533 -2532 -37 0
2533 2532 -37 0
2533 -2532 37 0
-2534 2533 38 0
-2534 -2533 -38 0
2534 2533 -38 0
2534 -2533 38 0
-2535 2534 43 0
-2535 -2534 -43 0
2535 2534 -43 0
2535 -2534 43 0
-2536 2535 71 0
-2536 -2535 -71 0
2536 2535 -71 0
2536 -2535 71 0
-2537 2536 75 0
-2537 -2536 -75 0
2537 2536 -75 0
2537 -2536 75 0
-2538 2537 76 0
-2538 -2537 -76 0
2538 2537 -76 0
2538 -2537 76 0
-2539 2538 89 0
-2539 -2538 -89 0
2539 2538 -89 0
2539 -2538 89 0
-2540 2539 90 0
-2540 -2539 -90 0
2540 2539 -90 0
2540 -2539 90 0
-2541 2540 94 0
-2541 -2540 -94 0
2541 2540 -94 0
2541 -2540 94 0
-2542 2541 95 0
-2542 -2541 -95 0
2542 2541 -95 0
2542 -2541 95 0
-2543 2542 103 0
-2543 -2542 -103 0
2543 2542 -103 0
2543 -2542 103 0
-2544 2543 104 0
-2544 -2543 -104 0
2544 2543 -104 0
2544 -2543 104 0
-2545 2544 119 0
-2545 -2544 -119 0
2545 2544 -119 0
2545 -2544 119 0
-2546 2545 120 0
-2546 -2545 -120 0
2546 2545 -120 0
2546 -2545 120 0
-2547 2546 123 0
-2547 -2546 -123 0
2547 2546 -123 0
2547 -2546 123 0
-2548 2547 128 0
-2548 -2547 -128 0
2548 2547 -128 0
2548 -2547 128 0
-2549 2548 184 0
-2549 -2548 -184 0
2549 2548 -184 0
2549 -2548 184 0
-2550 2549 185 0
-2550 -2549 -185 0
2550 2549 -185 0
2550 -2549 185 0
-2551 2550 186 0
-2551 -2550 -186 0
2551 2550 -186 0
2551 -2550 186 0
-2552 2551 187 0
-2552 -2551 -187 0
2552 2551 -187 0
2552 -2551 187 0
-2553 2552 188 0
-2553 -2552 -188 0
2553 2552 -188 0
2553 -2552 188 0
-2554 2553 193 0
-2554 -2553 -193 0
2554 2553 -193 0
2554 -2553 193 0
-2555 2554 194 0
-2555 -2554 -194 0
2555 2554 -194 0
2555 -2554 194 0
-2556 2555 195 0
-2556 -2555 -195 0
2556 2555 -195 0
2556 -2555 195 0
-2557 2556 198 0
-2557 -2556 -198 0
2557 2556 -198 0
2557 -2556 198 0
-2558 2557 199 0
-2558 -2557 -199 0
2558 2557 -199 0
2558 -2557 199 0
-2559 2558 200 0
-2559 -2558 -200 0
2559 2558 -200 0
2559 -2558 200 0
-2560 2559 214 0
-2560 -2559 -214 0
2560 2559 -214 0
2560 -2559 214 0
-2561 2560 215 0
-2561 -2560 -215 0
2561 2560 -215 0
2561 -2560 215 0
-2562 2561 216 0
-2562 -2561 -216 0
2562 2561 -216 0
2562 -2561 216 0
-2563 2562 217 0
-2563 -2562 -217 0
2563 2562 -217 0
2563 -2562 217 0
-2564 2563 218 0
-2564 -2563 -218 0
2564 2563 -218 0
2564 -2563 218 0
-2565 2564 226 0
-2565 -2564 -226 0
2565 2564 -226 0
2565 -2564 226 0
-2566 2565 231 0
-2566 -2565 -231 0
2566 2565 -231 0
2566 -2565 231 0
-2567 2566 232 0
-2567 -2566 -232 0
2567 2566 -232 0
2567 -2566 232 0
-2568 1 7 0
-2568 -1 -7 0
2568 1 -7 0
2568 -1 7 0
-2569 2568 8 0
-2569 -2568 -8 0
2569 2568 -8 0
2569 -2568 8 0
-2570 2569 9 0
-2570 -2569 -9 0
2570 2569 -9 0
2570 -2569 9 0
-2571 2570 20 0
-2571 -2570 -20 0
2571 2570 -20 0
2571 -2570 20 0
-2572 2571 26 0
-2572 -2571 -26 0
2572 2571 -26 0
2572 -2571 26 0
-2573 2572 38 0
-2573 -2572 -38 0
2573 2572 -38 0
2573 -2572 38 0
-2574 2573 39 0
-2574 -2573 -39 0
2574 2573 -39 0
2574 -2573 39 0
-2575 2574 44 0
-2575 -2574 -44 0
2575 2574 -44 0
2575 -2574 44 0
-2576 2575 72 0
-2576 -2575 -72 0
2576 2575 -72 0
2576 -2575 72 0
-2577 2576 80 0
-2577 -2576 -80 0
2577 2576 -80 0
2577 -2576 80 0
-2578 2577 81 0
-2578 -2577 -81 0
2578 2577 -81 0
2578 -2577 81 0
-2579 2578 93 0
-2579 -2578 -93 0
2579 2578 -93 0
2579 -2578 93 0
-2580 2579 94 0
-2580 -2579 -94 0
2580 2579 -94 0
2580 -2579 94 0
-2581 2580 95 0
-2581 -2580 -95 0
2581 2580 -95 0
2581 -2580 95 0
-2582 2581 98 0
-2582 -2581 -98 0
2582 2581 -98 0
2582 -2581 98 0
-2583 2582 99 0
-2583 -2582 -99 0
2583 2582 -99 0
2583 -2582 99 0
-2584 2583 100 0
-2584 -2583 -100 0
2584 2583 -100 0
2584 -2583 100 0
-2585 2584 103 0
-2585 -2584 -103 0
2585 2584 -103 0
2585 -2584 103 0
-2586 2585 108 0
-2586 -2585 -108 0
2586 2585 -108 0
2586 -2585 108 0
-2587 2586 109 0
-2587 -2586 -109 0
2587 2586 -109 0
2587 -2586 109 0
-2588 2587 123 0
-2588 -2587 -123 0
2588 2587 -123 0
2588 -2587 123 0
-2589 2588 124 0
-2589 -2588 -124 0
2589 2588 -124 0
2589 -2588 124 0
-2590 2589 125 0
-2590 -2589 -125 0
2590 2589 -125 0
2590 -2589 125 0
-2591 2590 128 0
-2591 -2590 -128 0
2591 2590 -128 0
2591 -2590 128 0
-2592 2591 163 0
-2592 -2591 -163 0
2592 2591 -163 0
2592 -2591 163 0
-2593 2592 190 0
-2593 -2592 -190 0
2593 2592 -190 0
2593 -2592 190 0
-2594 2593 191 0
-2594 -2593 -191 0
2594 2593 -191 0
2594 -2593 191 0
-2595 2594 192 0
-2595 -2594 -192 0
2595 2594 -192 0
2595 -2594 192 0
-2596 2595 193 0
-2596 -2595 -193 0
2596 2595 -193 0
2596 -2595 193 0
-2597 2596 198 0
-2597 -2596 -198 0
2597 2596 -198 0
2597 -2596 198 0
-2598 2597 199 0
-2598 -2597 -199 0
2598 2597 -199 0
2598 -2597 199 0
-2599 2598 200 0
-2599 -2598 -200 0
2599 2598 -200 0
2599 -2598 200 0
-2600 2599 203 0
-2600 -2599 -203 0
2600 2599 -203 0
2600 -2599 203 0
-2601 2600 204 0
-2601 -2600 -204 0
2601 2600 -204 0
2601 -2600 204 0
-2602 2601 205 0
-2602 -2601 -205 0
2602 2601 -205 0
2602 -2601 205 0
-2603 2602 220 0
-2603 -2602 -220 0
2603 2602 -220 0
2603 -2602 220 0
-2604 2603 221 0
-2604 -2603 -221 0
2604 2603 -221 0
2604 -2603 221 0
-2605 2604 222 0
-2605 -2604 -222 0
2605 2604 -222 0
2605 -2604 222 0
-2606 2605 231 0
-2606 -2605 -231 0
2606 2605 -231 0
2606 -2605 231 0
-2607 2606 236 0
-2607 -2606 -236 0
2607 2606 -236 0
2607 -2606 236 0
-2608 2607 237 0
-2608 -2607 -237 0
2608 2607 -237 0
2608 -2607 237 0
1958 2027 2098 2145 2220 2283 2358 2412 2474 2527 2567 2608 0
